%chk=apoCaM-CA-Ng.loop2.water5.frame1489.chk
%nprocshared=20
%mem=10GB
%nosave
#b3lyp/svp scf=(tight,noincore,xqc) Test 
#IOP(5/87=12) Density=Current Pop=(MK,readradii) iop(6/33=2) iop(6/42=6)

apoCaM-CA-Ng.loop2.water5.frame1489 

   -2  1 
C         21.87043       96.20392       30.69076
C         23.29092       96.67995       30.53519
O         23.79489       97.30807       31.45428
H         21.22759       96.63975       29.89800
H         21.83985       95.09474       30.63167
H         21.46017       96.50687       31.67765
N         24.03988       96.41642       29.42530
C         23.56408       95.67918       28.26393
C         23.66673       96.52273       26.99397
O         22.63386       96.72046       26.36763
C         24.22056       94.28005       28.19417
C         25.72100       94.18628       28.28385
O         26.29258       93.43756       29.24048
O         26.43426       94.68035       27.43979
H         25.01781       96.74287       29.41510
H         22.48359       95.44120       28.36221
H         23.87787       93.77264       27.26608
H         23.82347       93.69464       29.05301
N         24.84201       97.06268       26.54911
C         24.93718       97.86401       25.32447
C         25.78315       97.19862       24.24452
O         25.76161       97.67611       23.11842
C         25.49956       99.24734       25.65799
H         25.69508       96.91975       27.10148
H         23.92732       97.99762       24.88037
H         25.54733       99.88226       24.74758
H         24.85169       99.75057       26.40613
H         26.52406       99.15224       26.08027
N         26.55544       96.10827       24.50740
C         27.34342       95.39110       23.51508
C         26.99081       93.90332       23.44837
O         27.41311       93.26739       22.49180
C         28.84939       95.60094       23.80230
C         29.23912       95.33140       25.23738
O         29.76090       96.32209       25.98568
O         29.07339       94.23459       25.73877
H         26.62743       95.78785       25.46822
H         27.13555       95.79716       22.50078
H         29.09138       96.66534       23.59503
H         29.46130       94.97549       23.11661
N         26.25772       93.26450       24.41371
C         25.90694       91.85000       24.36982
C         27.07990       90.87763       24.34382
O         26.81320       89.68947       24.23262
H         25.89593       93.78764       25.21681
H         25.29579       91.67465       23.45780
H         25.27602       91.60372       25.25223
N         28.38462       91.28444       24.36873
C         29.50636       90.39894       24.08291
C         30.61347       90.47742       25.13695
O         31.59372       89.76243       24.98798
C         29.99385       90.79912       22.66539
C         31.04499       89.90696       22.04679
N         30.74550       89.13839       20.97320
O         32.18279       89.89862       22.48895
H         28.60495       92.27908       24.45166
H         29.16341       89.34248       24.03104
H         30.35408       91.85177       22.65845
H         29.09543       90.76260       22.00901
H         29.79581       89.12954       20.57322
H         31.46603       88.54081       20.54251
N         30.55735       91.29728       26.22827
C         31.69648       91.40061       27.12910
C         31.42829       92.36911       28.29287
O         30.47636       91.80943       29.14635
H         29.72475       91.87401       26.40681
H         32.55434       91.77352       26.53317
H         31.94084       90.39655       27.54020
N         32.59843       92.74847       29.10770
C         33.93675       92.13145       28.96887
C         34.46994       91.73366       30.35382
O         35.57278       91.21421       30.43222
C         34.87367       93.13817       28.22839
C         36.26751       92.58562       27.90170
O         34.28475       93.51809       27.00963
H         32.57786       93.73377       29.46073
H         33.88619       91.19499       28.38122
H         35.02314       94.03907       28.87218
H         33.82106       94.38372       27.15665
H         36.84459       93.34935       27.33686
H         36.85547       92.35654       28.81001
H         36.18495       91.67392       27.27220
N         33.73528       91.93032       31.49264
C         34.22897       91.68375       32.84613
C         33.34584       90.64161       33.54533
O         32.13680       90.82756       33.53931
C         34.19100       93.02899       33.63389
C         34.98424       94.16560       32.93155
C         34.66292       92.85632       35.08860
C         36.48305       93.90267       32.74951
H         32.78586       92.32313       31.42607
H         35.28036       91.34772       32.82512
H         33.13200       93.37045       33.67924
H         34.86433       95.09894       33.52375
H         34.54357       94.35813       31.92975
H         35.71217       92.50250       35.13892
H         34.58382       93.82064       35.63235
H         34.02151       92.12457       35.62003
H         36.66148       93.01896       32.10575
H         36.94774       94.78020       32.25296
H         36.98891       93.75568       33.72469
N         33.83512       89.56641       34.24739
C         35.25754       89.25897       34.41031
C         35.50451       88.32553       35.61103
O         34.61311       87.58868       36.01021
C         35.77163       88.61049       33.09335
C         37.26528       88.55999       32.88693
O         38.12121       89.19893       33.70255
O         37.70659       87.98948       31.90257
H         33.14034       88.98999       34.74682
H         35.77171       90.21162       34.64570
H         35.37621       89.15888       32.21500
H         35.35486       87.58063       33.03811
N         36.72791       88.30112       36.21410
C         37.13949       87.38133       37.27117
C         37.72225       88.15158       38.45842
O         38.62865       88.94283       38.22815
C         38.27747       86.49438       36.70736
C         38.90865       85.63836       37.78484
C         38.24943       84.51263       38.30409
C         40.16156       86.00397       38.31078
C         38.83898       83.76629       39.33206
C         40.73777       85.26678       39.34581
C         40.07884       84.14681       39.85539
H         37.44532       88.95450       35.88074
H         36.31291       86.71125       37.57982
H         39.05490       87.17648       36.29618
H         37.93035       85.86424       35.85984
H         37.28363       84.21516       37.91562
H         40.68044       86.87905       37.93900
H         38.33249       82.89696       39.73009
H         41.69250       85.57026       39.75590
H         40.52894       83.57747       40.65811
N         37.38318       87.89325       39.76269
C         36.34469       86.98349       40.23006
C         34.98314       87.47797       39.81310
O         34.22010       86.73938       39.20700
C         36.49129       87.00896       41.76178
C         37.97005       87.29394       41.92262
C         38.16752       88.38473       40.87651
H         36.55779       85.95813       39.86153
H         35.96735       87.88994       42.19651
H         36.11300       86.09842       42.27361
H         38.28681       87.57643       42.94859
H         38.53671       86.38826       41.60356
H         37.73957       89.35146       41.22294
H         39.24968       88.49578       40.64603
N         34.65819       88.77719       40.05505
C         33.43823       89.39877       39.57748
C         32.27332       88.95004       40.45182
O         32.29739       89.28651       41.62802
C         33.58636       90.93988       39.62132
C         34.76199       91.42259       38.73989
C         34.96344       92.91181       38.78803
O         34.17367       93.70078       39.54265
O         35.87190       93.41393       38.14584
H         35.35519       89.36728       40.53272
H         33.32095       89.15068       38.50901
H         33.76098       91.26735       40.67084
H         32.64652       91.40829       39.25508
H         34.58100       91.11328       37.68957
H         35.71485       90.96030       39.07098
N         31.21673       88.19603       40.02366
C         31.02456       87.63381       38.70116
H         30.07990       88.02376       38.27017
H         31.83877       87.83710       37.99029
H         30.94268       86.53008       38.79316
H         30.48025       87.97507       40.71243
Ca        28.47079       92.88268       28.94903
O         27.45786       95.14600       31.34699
H         26.48951       95.34219       31.41375
H         27.86898       95.66532       32.08251
O         27.29544       90.43009       27.73278
H         28.23774       90.22062       27.95417
H         26.88511       90.67308       28.60082
O         30.27521       96.07622       29.96136
H         29.83339       96.79745       30.47664
H         30.99383       96.53642       29.45943
O         27.70462       97.05704       28.78708
H         27.96827       97.52336       27.95466
H         27.35904       97.77366       29.37611
O         28.57728       91.96232       31.81912
H         28.63125       91.21763       31.16832
H         29.46172       92.40484       31.76508

Ca 1.0



