%chk=apoCaM-CA-Ng.loop2.water3.frame1035.chk
%nprocshared=20
%mem=10GB
%nosave
#b3lyp/svp scf=(tight,noincore,xqc) Test 
#IOP(5/87=12) Density=Current Pop=(MK,readradii) iop(6/33=2) iop(6/42=6)

apoCaM-CA-Ng.loop2.water3.frame1035 

   -2  1 
C         11.81087       55.36985       70.10256
C         10.73630       54.40867       69.63485
O         11.05615       53.23315       69.54194
H         12.68133       55.28309       69.41877
H         11.55383       56.44067       70.11168
H         12.13759       55.09456       71.12632
N          9.46018       54.76471       69.28723
C          8.88664       56.09992       69.39857
C          8.74769       56.76345       68.04649
O          9.00385       56.13332       67.03238
C          7.62046       56.06904       70.28568
C          6.44910       55.15041       69.98194
O          5.59818       55.04622       70.85109
O          6.24770       54.44871       68.84409
H          8.84714       54.02282       68.91754
H          9.56932       56.77116       69.93780
H          7.22368       57.09898       70.41373
H          7.98705       55.73915       71.28330
N          8.45815       58.09744       67.98037
C          8.43076       58.90014       66.75643
C          7.28222       58.56500       65.82050
O          7.17033       59.23292       64.79971
C          9.77506       58.80966       66.00886
H          8.31131       58.60474       68.86611
H          8.29254       59.96139       67.05990
H         10.61374       59.06873       66.68812
H          9.95232       57.79561       65.59491
H          9.78860       59.51593       65.15189
N          6.38886       57.56949       66.08212
C          5.32380       57.18128       65.15878
C          4.41285       56.10318       65.73621
O          4.62591       55.63827       66.84731
C          5.91025       56.73344       63.79203
C          7.11999       55.81902       63.84979
O          8.14052       56.16814       63.27775
O          7.11358       54.61725       64.46409
H          6.47258       57.06031       66.96960
H          4.65934       58.05815       64.98541
H          6.22082       57.64327       63.23547
H          5.11924       56.27142       63.16770
N          3.30894       55.70459       65.04705
C          2.38475       54.71204       65.55885
C          2.94825       53.30369       65.49159
O          3.99493       53.03355       66.05853
H          3.07137       56.17245       64.15863
H          1.44902       54.75769       64.96232
H          2.10958       54.96838       66.60537
N          2.23855       52.33334       64.85115
C          2.59394       50.91652       64.84365
C          3.87504       50.64315       64.06573
O          3.96213       51.00223       62.89982
C          1.40309       50.11456       64.27087
C          1.60211       48.62117       64.32538
N          1.47680       47.86867       63.20771
O          1.84825       48.08165       65.39404
H          1.34477       52.60782       64.41454
H          2.71555       50.58263       65.89856
H          1.19014       50.44174       63.22967
H          0.50786       50.34674       64.88947
H          1.24363       48.30127       62.30201
H          1.59138       46.84541       63.25109
N          4.89291       49.94806       64.65402
C          6.12640       49.57541       63.97719
C          6.98883       50.78785       63.69713
O          7.29772       51.49211       64.64720
H          4.77159       49.61686       65.62267
H          5.88165       48.97976       63.07590
H          6.71454       48.91440       64.65039
N          7.44012       51.12980       62.45344
C          7.15918       50.37521       61.23466
C          7.81973       49.00213       61.21013
O          7.42510       48.21383       60.36092
C          7.60305       51.14629       59.95902
C          6.81691       52.44911       59.74959
O          8.99365       51.37667       59.95716
H          7.98887       51.99951       62.38388
H          6.05781       50.23500       61.16880
H          7.37448       50.51859       59.06914
H          9.18603       52.18692       60.49655
H          7.15021       52.93665       58.80855
H          5.73271       52.22437       59.66257
H          6.97024       53.15738       60.58950
N          8.87307       48.66600       62.02086
C          9.56769       47.37823       61.90199
C          9.70862       46.66455       63.24802
O          9.52398       47.30846       64.27122
C         10.98591       47.58159       61.27385
C         11.89526       48.47441       62.16816
C         10.85856       48.13555       59.84709
C         13.33200       48.60242       61.66530
H          9.24080       49.36623       62.68019
H          8.97209       46.73244       61.23275
H         11.47239       46.59086       61.18123
H         11.95875       48.02682       63.18257
H         11.47009       49.49509       62.26285
H         10.41931       49.15273       59.85145
H         11.84665       48.17761       59.35449
H         10.21920       47.46572       59.23369
H         13.92317       49.20400       62.38782
H         13.79898       47.59836       61.57888
H         13.36879       49.12789       60.69039
N         10.11143       45.35670       63.36099
C         10.16965       44.39428       62.25930
C         11.59730       44.03048       61.86872
O         12.53731       44.33678       62.58768
C          9.32764       43.15995       62.66925
C          9.17401       42.11501       61.60148
O          8.61267       42.38443       60.55162
O          9.62536       40.86379       61.81386
H         10.30947       44.99559       64.30817
H          9.71734       44.82358       61.35219
H          8.30666       43.49815       62.95312
H          9.79196       42.69392       63.56662
N         11.80733       43.44556       60.65261
C         13.10240       43.06468       60.08835
C         12.87502       42.58878       58.65418
O         12.04379       41.70659       58.47682
C         13.77290       41.95996       60.94160
C         15.07166       41.48737       60.32338
C         15.05614       40.55195       59.27124
C         16.30598       41.98234       60.77729
C         16.24767       40.12943       58.67928
C         17.49779       41.56043       60.17675
C         17.46812       40.63603       59.12855
H         10.97393       43.29549       60.06534
H         13.77705       43.94450       60.08770
H         13.10053       41.08745       61.09497
H         13.98104       42.38249       61.94705
H         14.12144       40.14466       58.90905
H         16.34597       42.70575       61.58174
H         16.22258       39.41032       57.87041
H         18.44556       41.95275       60.52098
H         18.39001       40.31083       58.66425
N         13.56119       43.07955       57.57163
C         14.69343       43.99992       57.59929
C         14.32769       45.44923       57.88361
O         13.17933       45.76797       58.15666
C         15.32943       43.81088       56.21408
C         14.12500       43.53465       55.34732
C         13.33026       42.58171       56.22996
H         15.44850       43.68825       58.35468
H         15.99788       44.62560       55.86485
H         15.92657       42.86952       56.23400
H         13.55522       44.48630       55.25204
H         14.34589       43.14178       54.33250
H         12.25998       42.60513       55.93364
H         13.72196       41.54043       56.17410
N         15.33799       46.36622       57.90928
C         15.21484       47.73864       58.38667
C         16.61295       48.33985       58.59884
O         16.91984       49.36960       58.01472
C         14.31331       48.64455       57.49608
C         14.72122       48.78491       56.01460
C         14.17944       47.67233       55.16744
O         12.84593       47.50106       55.06819
O         14.92953       46.96118       54.52047
H         16.28696       46.02733       57.68609
H         14.75309       47.71617       59.39237
H         14.36006       49.65592       57.95798
H         13.24870       48.33980       57.54629
H         15.82118       48.87841       55.90335
H         14.26854       49.71808       55.61554
N         17.54153       47.77928       59.43110
C         17.35096       46.58973       60.23961
H         16.33457       46.16148       60.16933
H         18.08374       45.81555       59.92820
H         17.53052       46.84171       61.30503
H         18.46410       48.23605       59.50444
Ca         6.99214       54.41050       66.71328
O          9.75274       53.25357       66.03921
H         10.11343       53.92196       65.40426
H         10.52152       53.01505       66.61544
O          4.92153       51.73078       68.31832
H          5.44673       51.56769       69.14066
H          4.95665       50.87473       67.82234
O          8.06323       51.59618       67.94933
H          8.27741       51.37059       68.88934
H          8.08660       50.72932       67.47199

Ca 1.0



