%chk=apoCaM-CA-Ng.loop2.water4.frame1046.chk
%nprocshared=20
%mem=10GB
%nosave
#b3lyp/svp scf=(tight,noincore,xqc) Test 
#IOP(5/87=12) Density=Current Pop=(MK,readradii) iop(6/33=2) iop(6/42=6)

apoCaM-CA-Ng.loop2.water4.frame1046 

   -2  1 
C         28.56238       67.20553       70.90676
C         29.04596       68.58827       70.57996
O         28.70628       69.08714       69.51686
H         27.92104       66.81443       70.08896
H         29.43537       66.52871       71.01980
H         27.96923       67.22045       71.84453
N         29.85232       69.30036       71.41561
C         30.32706       68.84220       72.72022
C         31.85345       68.70696       72.67743
O         32.34560       68.15700       71.70261
C         29.73969       69.73995       73.85682
C         29.96227       71.20636       73.60200
O         30.84043       71.92735       74.31312
O         29.38065       71.75264       72.67822
H         30.16130       70.22499       71.08641
H         29.96675       67.81631       72.92734
H         30.14554       69.43328       74.84182
H         28.64098       69.59084       73.92693
N         32.65969       69.09969       73.70959
C         34.10950       68.91851       73.76525
C         34.82888       69.75537       72.71984
O         35.74157       69.27154       72.06389
C         34.49376       67.42697       73.72081
H         32.24481       69.53117       74.54389
H         34.44378       69.31117       74.75192
H         35.58735       67.30203       73.86851
H         33.96754       66.87286       74.52682
H         34.22703       66.96609       72.74720
N         34.45148       71.04814       72.52567
C         35.10352       71.96924       71.60082
C         35.26954       73.32056       72.27525
O         34.32523       73.79671       72.88786
C         34.29246       72.08326       70.28386
C         32.87385       72.54351       70.47631
O         31.95315       71.78511       70.22324
O         32.60812       73.75439       71.00175
H         33.61972       71.38707       73.03355
H         36.10009       71.58585       71.28678
H         34.27994       71.07308       69.81469
H         34.80956       72.77010       69.58014
N         36.42021       74.03882       72.17406
C         36.50203       75.39146       72.71025
C         35.58067       76.37512       71.98641
O         35.48656       77.51120       72.42721
H         37.23616       73.64024       71.68575
H         37.54122       75.77160       72.61272
H         36.24726       75.35967       73.79177
N         34.92686       76.03479       70.83571
C         34.14008       76.97182       70.03234
C         32.75738       77.22697       70.62011
O         32.39302       76.62307       71.61793
C         34.02861       76.40895       68.59158
C         35.38748       76.24288       67.93495
N         35.49103       75.63495       66.73328
O         36.40164       76.64959       68.48544
H         35.09411       75.10214       70.43571
H         34.67809       77.94383       69.97184
H         33.42026       77.07133       67.94095
H         33.52641       75.41715       68.63958
H         34.65694       75.26562       66.25676
H         36.41264       75.52164       66.28508
N         31.93260       78.13309       70.01931
C         30.58112       78.45640       70.45576
C         30.44730       79.93015       70.75956
O         31.46102       80.61175       70.82786
H         32.27386       78.62837       69.18175
H         30.26178       77.86532       71.34124
H         29.90773       78.22093       69.62542
N         29.24043       80.53301       70.96933
C         27.93149       79.88688       70.82558
C         27.67559       79.54678       69.35849
O         27.95817       80.38447       68.51229
C         26.78636       80.79119       71.36798
C         26.99148       81.18090       72.84436
O         26.57803       81.93383       70.57275
H         29.27100       81.53108       71.22410
H         27.90481       78.96689       71.45099
H         25.85036       80.19142       71.32509
H         27.36206       82.53128       70.66897
H         27.88511       81.82607       72.97679
H         26.11024       81.74465       73.21566
H         27.12029       80.27291       73.47107
N         27.12476       78.35248       68.98093
C         26.97577       77.95721       67.57721
C         25.52136       78.08648       67.12292
O         24.69305       77.37159       67.66938
C         27.43554       76.47600       67.36841
C         28.85222       76.17400       67.90975
C         27.32002       76.05278       65.88852
C         29.98093       76.95937       67.23620
H         26.80322       77.70054       69.71281
H         27.63852       78.57238       66.95084
H         26.74937       75.81943       67.95057
H         29.06071       75.08936       67.78172
H         28.86411       76.36557       69.00179
H         27.61879       74.98990       65.76948
H         26.27413       76.14159       65.52828
H         27.95830       76.68502       65.23737
H         29.84164       78.05257       67.35517
H         30.94483       76.67608       67.70646
H         30.04495       76.72106       66.15776
N         25.10557       78.88504       66.08734
C         25.89089       79.91365       65.40483
C         26.35144       79.45313       64.01712
O         25.96075       78.38789       63.55854
C         25.02214       81.19924       65.36695
C         25.69518       82.41476       64.79663
O         25.23247       82.96553       63.80997
O         26.79684       82.91871       65.38512
H         24.12296       78.78165       65.78449
H         26.79976       80.15589       65.98034
H         24.71854       81.45323       66.40623
H         24.09739       80.98736       64.78477
N         27.25408       80.21209       63.33048
C         27.83882       79.91151       62.02000
C         28.83983       81.02115       61.69191
O         28.43209       82.17801       61.73680
C         26.77332       79.84154       60.89822
C         27.43595       79.57481       59.55939
C         27.85661       80.64951       58.75375
C         27.68938       78.25984       59.12852
C         28.52197       80.41472       57.54745
C         28.35051       78.02969       57.91527
C         28.76907       79.10616       57.12800
H         27.59034       81.06095       63.80580
H         28.34193       78.92367       62.06407
H         26.20287       80.79487       60.85126
H         26.03375       79.03901       61.10340
H         27.68500       81.67088       59.06851
H         27.38483       77.41516       59.73324
H         28.85218       81.24872       56.94121
H         28.54699       77.01691       57.58738
H         29.28823       78.92768       56.19462
N         30.14150       80.79780       61.33673
C         30.75914       79.50196       61.08334
C         31.03772       78.71551       62.35121
O         30.64861       79.12959       63.43306
C         32.01839       79.87292       60.29020
C         32.40620       81.19595       60.90536
C         31.05496       81.88254       61.03797
H         30.13144       78.86988       60.42043
H         32.81362       79.10000       60.24826
H         31.70829       80.09644       59.24223
H         32.78419       80.98887       61.92563
H         33.17006       81.78191       60.35296
H         31.10662       82.63992       61.85095
H         30.73241       82.36017       60.08646
N         31.64889       77.49908       62.24668
C         31.76228       76.55370       63.34981
C         32.12697       75.15909       62.82263
O         33.11589       74.58848       63.25807
C         32.71035       77.06351       64.47899
C         34.19504       77.26914       64.10303
C         34.41116       78.38187       63.12828
O         34.93186       78.16449       62.04586
O         34.07941       79.63877       63.47153
H         31.95926       77.19694       61.31209
H         30.75308       76.43403       63.80064
H         32.67260       76.31476       65.29963
H         32.32060       78.01083       64.90607
H         34.64095       76.33417       63.71227
H         34.75591       77.53759       65.02245
N         31.36147       74.49795       61.90307
C         30.13673       75.01079       61.31964
H         29.39615       75.23837       62.11338
H         30.32360       75.91196       60.70582
H         29.70254       74.24930       60.63767
H         31.65857       73.55336       61.61150
Ca        31.53697       73.59375       72.97609
O         29.46409       74.10246       75.65912
H         29.27074       73.24178       76.10941
H         30.10166       74.55910       76.26304
O         32.98473       74.48174       75.74045
H         33.05094       73.76175       76.41678
H         32.66038       75.26822       76.24701
O         31.42553       76.92680       74.31683
H         30.78351       77.35185       74.93847
H         32.06323       77.64875       74.08677
O         28.89560       75.17461       72.17031
H         28.39032       74.34574       71.97496
H         28.20259       75.83199       72.43086

Ca 1.0



