%chk=apoCaM-CA-Ng.loop2.water2.frame941.chk
%nprocshared=20
%mem=10GB
%nosave
#b3lyp/svp scf=(tight,noincore,xqc) Test 
#IOP(5/87=12) Density=Current Pop=(MK,readradii) iop(6/33=2) iop(6/42=6)

apoCaM-CA-Ng.loop2.water2.frame941 

   -2  1 
C        -14.84251       92.44283       68.74326
C        -15.16868       91.77671       70.04647
O        -16.15660       91.06069       70.12473
H        -13.82749       92.13660       68.41103
H        -15.57447       92.15697       67.95842
H        -14.86467       93.54459       68.87440
N        -14.34368       91.94961       71.11414
C        -14.55013       91.32126       72.40997
C        -13.49156       90.24871       72.56214
O        -12.58937       90.37032       73.37980
C        -14.52377       92.40621       73.51264
C        -14.82299       91.88617       74.89867
O        -14.84138       92.74611       75.93449
O        -15.06126       90.70490       75.09901
H        -13.49388       92.52294       70.98896
H        -15.54266       90.82079       72.46469
H        -15.29565       93.17008       73.27439
H        -13.53164       92.90756       73.52196
N        -13.56753       89.14128       71.77002
C        -12.57759       88.07495       71.78726
C        -11.28514       88.59015       71.16800
O        -11.33485       89.00348       70.01734
C        -13.08641       86.87064       70.98573
H        -14.37849       89.05287       71.13758
H        -12.46172       87.72161       72.82979
H        -12.34147       86.04768       71.01283
H        -14.03369       86.49903       71.43332
H        -13.28172       87.14766       69.92768
N        -10.09091       88.65011       71.82590
C         -9.86521       88.18442       73.19137
C         -8.67463       88.87843       73.84315
O         -7.99168       89.66816       73.20599
C         -9.75164       86.64191       73.22172
C         -8.69419       86.12424       72.28611
O         -7.41163       86.49178       72.43762
O         -8.99784       85.36318       71.38156
H         -9.30053       89.06781       71.30993
H        -10.70990       88.51324       73.82984
H        -10.72224       86.19556       72.92418
H         -9.53253       86.28950       74.25079
N         -8.44026       88.68547       75.17232
C         -7.45437       89.42577       75.93910
C         -6.54280       88.50458       76.71890
O         -6.68098       88.46101       77.93266
H         -9.05553       88.04645       75.69756
H         -8.02362       90.04455       76.66630
H         -6.85716       90.13242       75.32501
N         -5.53982       87.77588       76.15107
C         -5.17700       87.82858       74.74642
C         -4.07970       88.86426       74.54265
O         -2.98376       88.70934       75.06224
C         -4.80111       86.41693       74.25376
C         -4.15153       86.43863       72.86849
N         -4.01211       85.12070       72.26491
O         -4.70333       87.41101       72.01583
H         -4.91952       87.24615       76.78425
H         -6.04643       88.14372       74.14096
H         -5.71399       85.78323       74.25841
H         -4.05910       85.95099       74.93889
H         -3.94409       84.39393       73.01506
H         -3.05597       85.11484       71.85141
N         -4.35062       89.98257       73.80504
C         -3.42507       91.08483       73.59964
C         -2.33835       90.83640       72.56843
O         -1.57349       91.75769       72.32562
H         -5.30381       90.10724       73.43350
H         -2.99348       91.39468       74.57490
H         -4.00982       91.94565       73.20643
N         -2.21891       89.65685       71.89640
C         -1.22938       89.40972       70.84727
C         -1.92286       89.06439       69.53420
O         -3.14309       89.00324       69.49293
C         -0.27456       88.27323       71.29563
C          0.58582       88.72260       72.47718
O         -0.99268       87.12679       71.67166
H         -2.85701       88.89018       72.12277
H         -0.62088       90.31826       70.64652
H          0.43890       88.01486       70.48163
H         -1.41469       86.76912       70.85028
H         -0.04465       88.98421       73.35277
H          1.27937       87.90579       72.76897
H          1.19220       89.60860       72.18946
N         -1.18197       88.82538       68.40941
C         -1.76507       88.46916       67.11868
C         -1.31933       87.05360       66.79435
O         -0.12585       86.79468       66.74485
C         -1.34959       89.48018       66.01195
C         -2.10291       89.14872       64.69262
C         -1.64550       90.92299       66.46927
C         -1.70124       90.02464       63.50442
H         -0.15479       88.88283       68.46810
H         -2.87539       88.49572       67.18401
H         -0.25252       89.39657       65.84458
H         -3.19986       89.24747       64.85257
H         -1.89369       88.09699       64.40245
H         -2.73195       91.06428       66.65138
H         -1.09371       91.15806       67.40360
H         -1.30072       91.66206       65.71944
H         -2.26357       89.69899       62.60354
H         -1.94826       91.09098       63.67835
H         -0.61453       89.92238       63.30200
N         -2.25050       86.07703       66.61890
C         -1.94364       84.65670       66.50420
C         -2.44301       84.05502       65.20843
O         -2.19098       82.87168       65.00716
C         -2.65221       83.91924       67.65437
C         -2.36624       84.56959       68.96553
O         -1.11931       84.58238       69.47268
O         -3.27002       85.14438       69.54548
H         -3.23352       86.34210       66.64589
H         -0.84560       84.49635       66.57432
H         -2.36997       82.84491       67.69351
H         -3.75211       83.97844       67.47940
N         -3.20452       84.75238       64.31233
C         -3.73715       84.12896       63.10927
C         -4.71084       85.06604       62.38074
O         -4.29591       86.17372       62.05669
C         -2.58721       83.75170       62.14425
C         -3.11108       83.00489       60.94457
C         -3.42759       83.69675       59.76483
C         -3.30631       81.61408       61.00224
C         -3.93628       83.00940       58.66060
C         -3.80545       80.92803       59.89064
C         -4.12280       81.62583       58.72184
H         -3.45892       85.73206       64.50760
H         -4.24485       83.20323       63.43278
H         -1.81198       83.12187       62.62746
H         -2.06145       84.67744       61.82363
H         -3.29438       84.76965       59.70728
H         -3.06815       81.06253       61.90387
H         -4.18867       83.55135       57.75902
H         -3.94903       79.85608       59.93570
H         -4.51517       81.09549       57.86428
N         -5.98242       84.69517       62.00751
C         -6.80743       85.48823       61.09191
C         -7.42138       86.76559       61.65503
O         -8.13380       87.43700       60.92201
C         -7.93373       84.52664       60.68498
C         -7.27503       83.17096       60.84125
C         -6.54493       83.36402       62.15669
H         -6.18072       85.71139       60.19822
H         -8.74750       84.56371       61.44639
H         -8.37463       84.73221       59.68646
H         -7.97747       82.31113       60.83249
H         -6.51970       83.03800       60.03510
H         -7.28219       83.38674       62.99225
H         -5.83117       82.53560       62.30376
N         -7.24915       87.12716       62.95686
C         -7.93843       88.25453       63.59741
C         -7.59234       89.63750       63.04079
O         -8.17564       90.59763       63.52595
C         -7.75302       88.16199       65.13696
C         -6.30129       88.32100       65.61448
C         -6.10893       87.70747       66.98117
O         -5.41525       86.71522       67.08395
O         -6.67322       88.19383       68.09921
H         -6.68424       86.50355       63.54635
H         -9.02878       88.11308       63.42444
H         -8.10610       87.14318       65.41325
H         -8.40008       88.89031       65.67352
H         -5.98190       89.38550       65.58510
H         -5.62311       87.77059       64.93162
N         -6.71737       89.83022       62.00793
C         -6.46016       91.13084       61.41482
H         -5.37456       91.35359       61.45806
H         -6.77922       91.11762       60.34980
H         -7.00895       91.95215       61.92255
H         -6.22438       89.03444       61.58422
Ca        -5.78874       87.25911       69.99995
O         -5.62383       90.19447       70.77462
H         -5.78352       90.82327       70.02762
H         -6.51625       89.81660       70.97614
O         -6.96995       84.66012       68.77637
H         -7.51489       85.37592       69.18832
H         -7.42311       84.47565       67.91611

Ca 1.0



