%chk=apoCaM-CA-Ng.loop2.water4.frame1230.chk
%nprocshared=20
%mem=10GB
%nosave
#b3lyp/svp scf=(tight,noincore,xqc) Test 
#IOP(5/87=12) Density=Current Pop=(MK,readradii) iop(6/33=2) iop(6/42=6)

apoCaM-CA-Ng.loop2.water4.frame1230 

   -2  1 
C         48.63268       14.71251       27.74705
C         47.69653       14.72461       26.56595
O         47.01196       15.72400       26.40352
H         49.37489       15.53097       27.63997
H         48.04167       14.88275       28.67080
H         49.17310       13.75903       27.88638
N         47.55434       13.68328       25.69302
C         48.35365       12.45474       25.70670
C         47.73208       11.37117       24.81345
O         46.66838       11.57709       24.24477
C         49.82687       12.76975       25.31253
C         49.92957       13.29597       23.91711
O         50.66878       12.64938       23.00397
O         49.32259       14.30339       23.59005
H         46.83525       13.79974       24.96223
H         48.33632       12.02349       26.73006
H         50.45358       11.85857       25.40487
H         50.27208       13.52405       25.98695
N         48.34353       10.16025       24.68029
C         47.78141        9.01962       23.96744
C         47.42895        9.32497       22.51525
O         46.30713        9.05718       22.10650
C         46.58985        8.44560       24.75256
H         49.25369       10.00991       25.13828
H         48.55484        8.21933       23.95237
H         45.75774        9.17716       24.81747
H         46.21566        7.52084       24.26209
H         46.91154        8.17953       25.78219
N         48.37173        9.81427       21.65875
C         48.14890        9.92284       20.21030
C         49.44277       10.22340       19.45482
O         50.46363       10.52435       20.05648
C         47.01099       10.92307       19.83054
C         47.32119       12.35089       20.17607
O         46.65618       12.94262       21.01182
O         48.35035       12.97732       19.57901
H         49.30344       10.01271       22.05212
H         47.83446        8.91241       19.86804
H         46.06823       10.62952       20.33282
H         46.80988       10.87442       18.73977
N         49.46671       10.10047       18.10114
C         50.64162       10.33921       17.27722
C         50.97885       11.80479       17.16061
O         50.43110       12.62078       17.88706
H         48.61179        9.77985       17.62207
H         50.38436       10.00735       16.24854
H         51.51320        9.74123       17.62000
N         51.81241       12.22245       16.16346
C         52.03016       13.63827       15.85820
C         50.68128       14.30008       15.55232
O         49.70473       13.58215       15.37483
C         52.99240       13.74342       14.64794
C         53.42530       15.14238       14.29873
N         54.17947       15.86570       15.15772
O         53.12188       15.61483       13.21321
H         52.24852       11.50439       15.56358
H         52.48301       14.11007       16.75774
H         52.49173       13.27877       13.76841
H         53.91492       13.15835       14.85620
H         54.46745       15.47216       16.06520
H         54.49542       16.81366       14.90437
N         50.53130       15.65560       15.51506
C         49.22886       16.28205       15.30112
C         48.82218       17.16638       16.46968
O         49.60894       17.33048       17.39159
H         51.35029       16.26298       15.66686
H         48.43954       15.51607       15.16862
H         49.26792       16.87297       14.37093
N         47.59157       17.76625       16.53989
C         46.53841       17.58781       15.53704
C         46.89212       18.22561       14.19922
O         46.19460       17.96475       13.22891
C         45.17877       18.17292       16.00287
C         44.67733       17.57691       17.32125
O         45.27480       19.56995       16.13813
H         47.39002       18.33291       17.37762
H         46.39487       16.49416       15.39544
H         44.42251       17.90477       15.22349
H         44.55457       19.97290       15.58507
H         43.67278       17.99180       17.55212
H         44.59596       16.47291       17.24426
H         45.34924       17.83349       18.16562
N         47.92806       19.10650       14.08558
C         48.31620       19.75803       12.83687
C         49.74688       19.35382       12.49295
O         50.42095       18.81494       13.35966
C         48.12259       21.30245       12.95994
C         48.93528       21.89843       14.14231
C         46.62208       21.61958       13.10250
C         48.88527       23.42612       14.21826
H         48.47783       19.33326       14.92392
H         47.67662       19.38315       12.01217
H         48.47648       21.77741       12.02198
H         49.99290       21.59124       14.03157
H         48.57472       21.50666       15.11572
H         46.05599       21.18690       12.25064
H         46.21785       21.19959       14.04735
H         46.43639       22.71184       13.09281
H         49.54955       23.77265       15.03839
H         49.22867       23.87906       13.26516
H         47.86094       23.78394       14.44427
N         50.30443       19.48323       11.25503
C         49.69231       20.03566       10.05210
C         50.62998       21.06571        9.45725
O         51.81789       20.78028        9.35618
C         49.50116       18.91793        9.00839
C         48.50903       17.88514        9.46248
O         48.84698       16.71883        9.58259
O         47.23201       18.23667        9.70827
H         51.25697       19.09799       11.14294
H         48.69263       20.47952       10.23340
H         50.47950       18.43467        8.78925
H         49.11493       19.35907        8.06252
N         50.16215       22.23304        8.93216
C         51.03486       23.16494        8.22668
C         50.70712       24.60055        8.60592
O         49.53968       24.96076        8.48951
C         50.83676       23.00042        6.70377
C         51.96558       23.66826        5.95402
C         51.76975       24.86601        5.24891
C         53.24548       23.08212        5.97134
C         52.84295       25.47225        4.58434
C         54.30955       23.68339        5.29654
C         54.11003       24.88049        4.60666
H         49.14291       22.39902        8.92326
H         52.09222       22.91755        8.44715
H         49.84307       23.40825        6.41289
H         50.84064       21.92638        6.41434
H         50.79635       25.33873        5.22912
H         53.41610       22.15411        6.50407
H         52.69446       26.40275        4.05274
H         55.28868       23.22132        5.31160
H         54.93809       25.34836        4.09003
N         51.64287       25.51986        8.98974
C         53.08204       25.30422        9.07058
C         53.51869       24.83721       10.45337
O         54.72024       24.73814       10.67141
C         53.62135       26.71511        8.79909
C         52.62763       27.57648        9.56010
C         51.30867       26.92132        9.17115
H         53.47449       24.62736        8.28667
H         54.68887       26.87465        9.06249
H         53.49408       26.93772        7.71394
H         52.80064       27.41344       10.64770
H         52.67308       28.66710        9.35754
H         50.53323       27.09102        9.95001
H         50.95474       27.31658        8.19240
N         52.62064       24.58669       11.44809
C         53.00000       24.30427       12.82885
C         52.43449       25.39431       13.73673
O         51.61843       26.18188       13.27462
C         52.42976       22.92946       13.23563
C         53.07532       21.73031       12.52666
C         54.44963       21.41849       13.05491
O         54.67717       20.23696       13.66163
O         55.36402       22.21706       12.93712
H         51.61058       24.64822       11.24699
H         54.10113       24.33543       12.93555
H         51.35962       22.95028       12.95887
H         52.49044       22.75431       14.33083
H         53.10462       21.88946       11.42884
H         52.43738       20.84299       12.72678
N         52.81318       25.55460       15.03857
C         53.83055       24.78179       15.72501
H         54.63894       25.46855       16.05476
H         53.38722       24.29753       16.61853
H         54.29510       24.00000       15.09766
H         52.37412       26.31456       15.58125
Ca        50.10588       13.20751       20.92701
O         52.42104       15.13110       19.44273
H         52.41724       16.06896       19.12555
H         53.35892       14.96461       19.71296
O         49.89189       16.25658       20.97772
H         48.93253       16.10009       20.78875
H         50.06086       17.18047       20.66495
O         53.13745       12.06358       19.72574
H         54.02690       12.27120       19.34403
H         53.11305       11.07512       19.77259
O         53.29900       13.85757       22.51641
H         53.33499       13.32588       23.35115
H         53.31949       14.79927       22.82116

Ca 1.0



