%chk=apoCaM-CA-Ng.loop2.water4.frame1054.chk
%nprocshared=20
%mem=10GB
%nosave
#b3lyp/svp scf=(tight,noincore,xqc) Test 
#IOP(5/87=12) Density=Current Pop=(MK,readradii) iop(6/33=2) iop(6/42=6)

apoCaM-CA-Ng.loop2.water4.frame1054 

   -2  1 
C          7.16003       57.87525       71.12551
C          7.13069       58.69766       69.86687
O          7.86896       58.37569       68.94736
H          6.15509       57.43344       71.29694
H          7.88875       57.04154       71.02938
H          7.45217       58.49796       71.99491
N          6.28513       59.75438       69.69620
C          5.35562       60.25997       70.69922
C          5.57714       61.76357       70.88321
O          6.72766       62.14145       71.05375
C          3.92982       59.80172       70.31464
C          3.52044       60.17621       68.90870
O          3.31328       59.30051       68.08365
O          3.37025       61.46181       68.54754
H          6.27611       60.21273       68.77662
H          5.56950       59.80500       71.68793
H          3.18233       60.16316       71.04998
H          3.92781       58.69025       70.37577
N          4.55396       62.67809       70.88411
C          4.73719       64.12367       71.02813
C          5.47604       64.74876       69.84533
O          5.86115       65.90608       69.94010
C          5.38615       64.47030       72.37841
H          3.58233       62.35623       70.79660
H          3.73386       64.60561       71.05077
H          4.78248       64.03738       73.20476
H          6.42594       64.09856       72.45764
H          5.40673       65.57286       72.51751
N          5.61822       64.07874       68.66382
C          6.25894       64.62979       67.47708
C          5.25089       64.92141       66.38009
O          4.43661       64.08031       66.04982
C          7.40422       63.72524       66.95991
C          7.28421       62.21846       67.11201
O          8.17685       61.64802       67.71982
O          6.28569       61.44681       66.62227
H          5.20965       63.14175       68.56798
H          6.74036       65.60780       67.69999
H          8.30715       64.00406       67.55007
H          7.63921       63.99425       65.90668
N          5.30987       66.11406       65.72048
C          4.48137       66.46922       64.58032
C          4.65654       65.49927       63.43358
O          3.66530       65.09755       62.84305
H          6.02165       66.80529       66.00255
H          4.80371       67.47180       64.22488
H          3.41126       66.53925       64.87427
N          5.89819       65.07402       63.06429
C          6.13281       64.12922       61.96758
C          5.44856       62.79134       62.21935
O          4.90164       62.58760       63.29089
C          7.65446       63.90740       61.79126
C          8.40537       65.17196       61.42943
N          9.75470       65.15590       61.34192
O          7.80456       66.21582       61.21731
H          6.70712       65.43776       63.59199
H          5.70923       64.55847       61.03319
H          7.84906       63.15809       60.99534
H          8.06206       63.50856       62.74757
H         10.28589       64.29623       61.53629
H         10.27268       66.01226       61.09582
N          5.41996       61.82916       61.25380
C          4.76228       60.54937       61.47293
C          4.76434       59.70971       60.20526
O          4.15149       60.16171       59.24853
H          5.86581       62.02059       60.34355
H          3.69862       60.72128       61.74908
H          5.23239       60.06736       62.34267
N          5.38515       58.49739       60.05795
C          6.20637       57.80557       61.04496
C          7.61252       57.67173       60.48779
O          7.80015       57.07213       59.43754
C          5.58681       56.43474       61.39838
C          6.44052       55.68758       62.43071
O          4.30770       56.62283       61.94817
H          5.28471       58.02937       59.14228
H          6.26760       58.36429       61.98927
H          5.51697       55.79101       60.49042
H          3.68425       56.78384       61.19316
H          7.45318       55.47380       62.02805
H          6.54420       56.29178       63.35816
H          5.96190       54.71995       62.68958
N          8.65108       58.24538       61.15322
C         10.03038       58.23111       60.68065
C         10.57332       56.79707       60.68465
O         10.51965       56.18382       61.74133
C         10.91307       59.15638       61.58037
C         10.42580       60.63875       61.57318
C         12.40435       59.08817       61.19290
C         10.50180       61.34199       60.21217
H          8.43826       58.73687       62.03293
H         10.04766       58.68357       59.68659
H         10.83720       58.79002       62.62872
H         11.04295       61.21850       62.29292
H          9.37798       60.70636       61.92918
H         13.00162       59.74822       61.85666
H         12.79725       58.05811       61.31737
H         12.56615       59.39218       60.13871
H         11.54498       61.38721       59.85122
H          9.86525       60.84886       59.45171
H         10.13915       62.38175       60.31112
N         11.17946       56.18784       59.61370
C         11.39056       56.76985       58.29024
C         12.83655       57.23201       58.14975
O         13.68086       56.84775       58.94832
C         10.96923       55.75000       57.21042
C         11.02945       56.30262       55.81363
O         10.26696       57.35935       55.47198
O         11.75210       55.78471       54.97733
H         11.58861       55.25305       59.77609
H         10.76178       57.65567       58.14266
H          9.91923       55.43681       57.39938
H         11.61573       54.84746       57.28806
N         13.15754       58.16243       57.20684
C         14.48551       58.75500       57.05205
C         14.41528       59.86179       56.00415
O         13.93546       59.57221       54.91400
C         15.52773       57.70464       56.59137
C         16.89665       58.34343       56.51679
C         17.35215       58.92081       55.31784
C         17.70128       58.42516       57.66629
C         18.58643       59.57580       55.27451
C         18.93932       59.07377       57.61579
C         19.37916       59.65272       56.42237
H         12.39404       58.50998       56.60729
H         14.80666       59.16828       58.03176
H         15.23748       57.29474       55.59831
H         15.57645       56.83728       57.28274
H         16.74209       58.88465       54.42402
H         17.36509       57.99564       58.60174
H         18.92395       60.03259       54.35308
H         19.55332       59.13702       58.50480
H         20.33187       60.16532       56.38817
N         14.90913       61.12662       56.19166
C         15.65779       61.61462       57.34511
C         14.74962       62.10529       58.46469
O         13.54561       61.90977       58.40328
C         16.49911       62.73913       56.73103
C         15.52939       63.34350       55.74239
C         14.91741       62.10057       55.11648
H         16.36330       60.86344       57.75589
H         16.96203       63.44752       57.44828
H         17.32142       62.27281       56.13932
H         14.74103       63.85431       56.32395
H         15.96183       64.06254       55.01662
H         13.90097       62.32289       54.72477
H         15.56607       61.70952       54.30202
N         15.30232       62.71023       59.55762
C         14.56167       63.04601       60.76936
C         15.53274       63.30359       61.93063
O         15.47996       64.36067       62.54188
C         13.53267       64.20267       60.56126
C         14.10028       65.58559       60.16351
C         14.60482       65.63420       58.75727
O         15.89405       65.93045       58.50490
O         13.82901       65.46251       57.83218
H         16.32279       62.85220       59.56128
H         13.98129       62.14887       61.07736
H         13.00426       64.33462       61.53108
H         12.75886       63.90669       59.82168
H         14.89886       65.90991       60.85719
H         13.28479       66.33784       60.23801
N         16.44145       62.37153       62.34544
C         16.60212       61.05592       61.75817
H         17.37900       60.49213       62.31585
H         15.64845       60.49180       61.80895
H         16.94974       61.11891       60.70979
H         17.04732       62.60493       63.14786
Ca         4.22973       61.51698       65.68049
O          1.58501       63.11174       64.59591
H          0.79804       63.62662       64.28860
H          2.35273       63.53122       64.14049
O          4.34798       58.75371       64.65097
H          3.88287       57.91078       64.42223
H          5.22130       58.46825       65.01934
O          0.86409       61.67694       66.95997
H          0.08931       61.97352       66.41981
H          0.47513       61.06879       67.63647
O          1.69444       60.16739       64.02626
H          0.78522       60.09397       64.41123
H          1.60255       59.82289       63.10274

Ca 1.0



