%chk=apoCaM-CA-Ng.loop2.water4.frame671.chk
%nprocshared=20
%mem=10GB
%nosave
#b3lyp/svp scf=(tight,noincore,xqc) Test 
#IOP(5/87=12) Density=Current Pop=(MK,readradii) iop(6/33=2) iop(6/42=6)

apoCaM-CA-Ng.loop2.water4.frame671 

   -2  1 
C        -23.64596       45.07645       84.58759
C        -24.95896       44.82130       85.26593
O        -25.87784       44.33009       84.62551
H        -22.84295       44.50390       85.09684
H        -23.68602       44.76700       83.52114
H        -23.40866       46.16020       84.63452
N        -25.12243       45.14999       86.57779
C        -26.37914       44.95074       87.28999
C        -26.70724       43.47315       87.35888
O        -25.93499       42.71911       87.93727
C        -26.29096       45.55938       88.70690
C        -27.59342       45.46549       89.45966
O        -28.11591       44.26496       89.77716
O        -28.17408       46.48179       89.80553
H        -24.32599       45.58010       87.07445
H        -27.17838       45.50014       86.74409
H        -26.01650       46.63279       88.60389
H        -25.49325       45.05756       89.29707
N        -27.85285       42.99151       86.79436
C        -28.22470       41.58279       86.86715
C        -27.17481       40.71003       86.18811
O        -26.46092       41.22088       85.33637
C        -29.60374       41.36194       86.23184
H        -28.48766       43.65384       86.32233
H        -28.27743       41.33165       87.94822
H        -29.91940       40.30099       86.29789
H        -30.36054       41.98047       86.76070
H        -29.58763       41.65738       85.16114
N        -26.93155       39.41424       86.55201
C        -27.70060       38.66317       87.53865
C        -26.94078       38.50065       88.84319
O        -25.77293       38.85186       88.92946
C        -28.13751       37.29379       86.96000
C        -26.99904       36.32676       86.72847
O        -26.96857       35.16284       87.40516
O        -26.11875       36.56929       85.91863
H        -26.12898       38.94673       86.11200
H        -28.62415       39.21044       87.79324
H        -28.68633       37.44731       86.00606
H        -28.84052       36.81612       87.67466
N        -27.58963       37.98648       89.92371
C        -26.97174       37.72555       91.21050
C        -26.44330       38.98850       91.88639
O        -27.23011       39.91478       92.01906
H        -28.58651       37.74093       89.82678
H        -26.24549       36.91479       91.07075
H        -27.75381       37.31080       91.88198
N        -25.18187       39.12723       92.41402
C        -24.12369       38.11826       92.38793
C        -22.85754       38.66365       91.76229
O        -22.74090       39.86632       91.56424
C        -23.90677       37.54000       93.80645
C        -23.34894       38.51450       94.81909
N        -22.06004       38.92532       94.75327
O        -24.05633       38.89818       95.73878
H        -24.97281       40.00842       92.91117
H        -24.41060       37.27057       91.75881
H        -23.23538       36.65596       93.77340
H        -24.90111       37.18344       94.15854
H        -21.42810       38.57660       94.01923
H        -21.67740       39.56647       95.46388
N        -21.87410       37.80689       91.37456
C        -20.65092       38.27526       90.75039
C        -19.87768       37.12795       90.15152
O        -18.74452       36.88758       90.54139
H        -22.02604       36.79277       91.49186
H        -20.04696       38.83363       91.49908
H        -20.89746       38.96430       89.91248
N        -20.44194       36.41006       89.14029
C        -19.77551       35.34425       88.40556
C        -19.58100       35.81063       86.98301
O        -20.55794       36.09107       86.30628
C        -20.62333       34.05313       88.45416
C        -20.09230       32.97149       87.49606
O        -20.63149       33.56743       89.77066
H        -21.38985       36.67386       88.83387
H        -18.77691       35.12397       88.84261
H        -21.66134       34.30600       88.14718
H        -21.31453       32.84784       89.80780
H        -20.14512       33.32093       86.44135
H        -19.04091       32.71268       87.73668
H        -20.72263       32.06066       87.56377
N        -18.32744       35.93195       86.46977
C        -18.08143       36.41075       85.11978
C        -18.50688       35.36220       84.09769
O        -17.98073       34.25891       84.08088
C        -16.59695       36.84021       84.92963
C        -16.34399       37.30106       83.46422
C        -16.26837       37.98240       85.92168
C        -14.89192       37.68377       83.17797
H        -17.52369       35.71867       87.07854
H        -18.66865       37.34368       84.97372
H        -15.94141       35.96835       85.14551
H        -17.00111       38.15869       83.21098
H        -16.59151       36.47298       82.76718
H        -15.20363       38.27813       85.86691
H        -16.89934       38.87332       85.71241
H        -16.44824       37.67969       86.97251
H        -14.22136       36.82778       83.40298
H        -14.78656       37.94746       82.10453
H        -14.57798       38.56773       83.76780
N        -19.41628       35.71679       83.15746
C        -19.83908       34.93530       82.00900
C        -19.26757       35.57804       80.75639
O        -18.72076       34.85672       79.93518
C        -21.37454       34.93396       81.93791
C        -21.98648       34.17083       83.07367
O        -22.68752       34.80551       84.03253
O        -21.85688       32.95788       83.12993
H        -19.80328       36.65689       83.22506
H        -19.47159       33.88445       82.05545
H        -21.72269       34.46501       80.99060
H        -21.74157       35.98287       81.94800
N        -19.34071       36.93191       80.55635
C        -18.78774       37.62020       79.39187
C        -19.15642       39.11676       79.45208
O        -18.25491       39.94641       79.41328
C        -17.23748       37.42276       79.37609
C        -16.47293       37.87451       78.14819
C        -15.07155       37.75031       78.17875
C        -17.08370       38.38048       76.98298
C        -14.29712       38.12318       77.07815
C        -16.30263       38.74902       75.88145
C        -14.91218       38.62100       75.92904
H        -19.80195       37.50426       81.27069
H        -19.24485       37.17089       78.48423
H        -16.98184       36.35240       79.48151
H        -16.82363       37.93949       80.27110
H        -14.57686       37.36036       79.06082
H        -18.15601       38.48560       76.90704
H        -13.21987       38.02170       77.11632
H        -16.77636       39.13096       74.98667
H        -14.31082       38.90474       75.07503
N        -20.45305       39.55895       79.57125
C        -20.84064       40.96729       79.64784
C        -20.13034       41.79468       80.70984
O        -20.17576       43.01365       80.62839
C        -22.32538       40.89927       80.02663
C        -22.77599       39.65371       79.30519
C        -21.62191       38.69685       79.58612
H        -20.66284       41.40809       78.64148
H        -22.41340       40.67282       81.11804
H        -22.90514       41.82215       79.81563
H        -23.77319       39.26474       79.60301
H        -22.78700       39.89236       78.21841
H        -21.73201       38.24438       80.59317
H        -21.60154       37.91597       78.79676
N        -19.52390       41.20211       81.77506
C        -18.84039       41.94615       82.82074
C        -17.58915       42.54097       82.21175
O        -17.42963       43.75339       82.23640
C        -18.46878       41.07347       84.05459
C        -19.65152       40.61152       84.95265
C        -20.47886       39.45091       84.46270
O        -21.47560       38.95816       85.21563
O        -20.22159       38.88771       83.42391
H        -19.52859       40.18731       81.81554
H        -19.50127       42.75665       83.20394
H        -17.85986       41.73512       84.71077
H        -17.82654       40.21451       83.77778
H        -20.30965       41.47893       85.17130
H        -19.21597       40.26538       85.91528
N        -16.67688       41.72813       81.60532
C        -15.48489       42.21002       80.94018
H        -14.59150       41.73383       81.39392
H        -15.53228       41.93128       79.86569
H        -15.37680       43.31234       81.01058
H        -16.84632       40.71087       81.58454
Ca       -22.42777       37.00855       84.52637
O        -24.46936       37.78905       82.58349
H        -24.29315       38.76333       82.59667
H        -24.58360       37.56765       81.62562
O        -23.45002       37.69404       87.61791
H        -23.13348       38.48186       88.12807
H        -23.78543       37.06956       88.30966
O        -23.94777       39.93617       85.47649
H        -23.72169       40.38983       86.32703
H        -23.66515       40.56763       84.76902
O        -23.66914       34.58875       86.60435
H        -23.30352       33.68888       86.41052
H        -24.45114       34.41712       87.18359

Ca 1.0



