%chk=apoCaM-CA-Ng.loop2.water4.frame771.chk
%nprocshared=20
%mem=10GB
%nosave
#b3lyp/svp scf=(tight,noincore,xqc) Test 
#IOP(5/87=12) Density=Current Pop=(MK,readradii) iop(6/33=2) iop(6/42=6)

apoCaM-CA-Ng.loop2.water4.frame771 

   -2  1 
C         87.01757       -9.59165        1.14893
C         88.33364       -9.03056        0.69510
O         88.45905       -8.65757       -0.46275
H         86.27825       -9.59043        0.31946
H         87.16176      -10.63816        1.49260
H         86.61678       -8.98548        1.98776
N         89.37788       -8.95954        1.56687
C         90.70017       -8.47447        1.18591
C         90.63271       -7.01508        0.77129
O         90.24166       -6.18523        1.58153
C         91.68825       -8.65503        2.36143
C         93.11995       -8.31257        2.02858
O         94.06377       -8.44283        2.97943
O         93.44405       -7.93506        0.91312
H         89.22737       -9.29891        2.53033
H         91.06514       -9.10321        0.34325
H         91.67040       -9.71989        2.67935
H         91.35933       -8.03154        3.22170
N         91.00283       -6.63998       -0.48809
C         90.96766       -5.26049       -0.96568
C         89.92945       -5.13640       -2.08450
O         89.37578       -6.16459       -2.45107
C         92.38461       -4.86741       -1.39627
H         91.31547       -7.36799       -1.14918
H         90.66297       -4.60463       -0.13600
H         92.46489       -3.80579       -1.67773
H         93.08227       -5.01681       -0.54461
H         92.72088       -5.49674       -2.24692
N         89.53213       -3.96288       -2.67439
C         90.05643       -2.61754       -2.43614
C         90.00771       -2.19145       -0.98056
O         89.21793       -2.72097       -0.20991
C         89.31432       -1.58492       -3.32181
C         87.82855       -1.53234       -3.05026
O         87.03568       -1.82974       -3.92961
O         87.36429       -1.14624       -1.84686
H         88.79006       -4.04987       -3.38681
H         91.11219       -2.60427       -2.76471
H         89.47162       -1.86612       -4.38681
H         89.74163       -0.56990       -3.17556
N         90.84541       -1.20801       -0.54166
C         90.88370       -0.76105        0.84094
C         91.44558       -1.82063        1.76804
O         91.87137       -2.86311        1.29247
H         91.48168       -0.75342       -1.21511
H         89.86096       -0.45896        1.14536
H         91.55698        0.11942        0.91663
N         91.52852       -1.64500        3.11684
C         91.03896       -0.48857        3.86248
C         89.98729       -0.90976        4.89440
O         89.56497       -0.07015        5.67675
C         92.24120        0.19560        4.54480
C         93.19299        0.76337        3.51712
N         94.46873        0.32205        3.42525
O         92.80306        1.63864        2.75810
H         91.97366       -2.39847        3.66724
H         90.55528        0.26226        3.20449
H         92.75887       -0.53808        5.20137
H         91.89515        1.03953        5.17990
H         94.82170       -0.41610        4.05053
H         95.10628        0.71814        2.71793
N         89.50087       -2.18586        4.94197
C         88.54056       -2.67033        5.91961
C         87.20593       -1.96311        5.87535
O         86.73429       -1.54998        6.92608
H         89.82727       -2.88486        4.26115
H         88.97559       -2.60707        6.94170
H         88.34735       -3.74388        5.70602
N         86.52851       -1.79803        4.70225
C         85.18409       -1.22028        4.63140
C         84.26457       -2.07341        3.76509
O         84.72297       -3.01787        3.13509
C         85.23869        0.22866        4.08955
C         85.96042        1.16359        5.06318
O         85.88682        0.27131        2.84403
H         86.99325       -2.07776        3.82409
H         84.72799       -1.18734        5.64622
H         84.20568        0.63855        3.99761
H         85.21121        0.03383        2.15706
H         85.94749        2.20168        4.66891
H         85.44394        1.16110        6.04803
H         87.01518        0.85422        5.20868
N         82.93083       -1.78539        3.70199
C         81.97677       -2.49739        2.85664
C         81.23719       -1.50152        1.98123
O         80.55150       -0.63920        2.51571
C         80.95006       -3.29217        3.72371
C         79.81374       -3.89816        2.84172
C         81.68041       -4.39388        4.51436
C         78.70058       -4.57688        3.63930
H         82.56517       -1.02407        4.29502
H         82.49979       -3.23144        2.20950
H         80.48152       -2.58507        4.44427
H         80.23312       -4.61280        2.10371
H         79.30873       -3.08842        2.27416
H         80.98782       -4.93056        5.19225
H         82.13965       -5.12900        3.81916
H         82.47988       -3.96009        5.14909
H         78.25738       -3.85820        4.36180
H         77.90205       -4.90876        2.94145
H         79.06971       -5.47011        4.17946
N         81.25531       -1.63102        0.62419
C         80.39256       -0.87148       -0.26905
C         79.38881       -1.77566       -1.00003
O         78.51582       -1.22661       -1.65714
C         81.24246       -0.01513       -1.22818
C         82.19064       -0.82367       -2.06987
O         81.76639       -1.64793       -2.86299
O         83.51912       -0.62869       -1.95787
H         81.87085       -2.33308        0.20285
H         79.77026       -0.16554        0.32365
H         81.83763        0.69732       -0.61532
H         80.58092        0.58136       -1.89235
N         79.41893       -3.14752       -0.92962
C         78.37881       -3.99380       -1.51664
C         78.81343       -5.46442       -1.60526
O         78.31727       -6.28658       -0.84676
C         77.05015       -3.83854       -0.71859
C         75.99466       -4.82919       -1.18003
C         75.55768       -4.85477       -2.51612
C         75.48379       -5.78149       -0.27577
C         74.64347       -5.82556       -2.94048
C         74.56958       -6.74725       -0.70465
C         74.15312       -6.77247       -2.03700
H         80.18238       -3.61922       -0.42928
H         78.17767       -3.67780       -2.56199
H         76.65869       -2.80509       -0.81978
H         77.26888       -4.01053        0.35906
H         75.93969       -4.14095       -3.23382
H         75.80937       -5.79203        0.75742
H         74.32310       -5.85164       -3.97373
H         74.19362       -7.48388       -0.00578
H         73.45389       -7.52891       -2.36963
N         79.64738       -5.90682       -2.59576
C         79.85635       -7.31915       -2.88653
C         80.71401       -8.04038       -1.86452
O         80.90116       -9.23917       -2.02404
C         80.44328       -7.30770       -4.29875
C         81.23936       -6.02350       -4.29392
C         80.29015       -5.06362       -3.57906
H         78.88305       -7.85910       -2.93707
H         80.98283       -8.23020       -4.60233
H         79.60511       -7.14958       -5.01772
H         82.12598       -6.19448       -3.64234
H         81.57549       -5.67340       -5.29185
H         80.87540       -4.23687       -3.12509
H         79.51227       -4.66382       -4.26641
N         81.21231       -7.41471       -0.76018
C         81.84399       -8.14888        0.32856
C         80.81068       -9.09545        0.90910
O         81.05096      -10.29412        0.93722
C         82.35070       -7.20764        1.44508
C         83.60233       -6.38930        1.08268
C         83.39815       -5.40683       -0.02418
O         84.18850       -5.42056       -1.10922
O         82.54285       -4.55082        0.07661
H         81.06623       -6.40550       -0.64920
H         82.71610       -8.73007       -0.04778
H         82.64902       -7.83517        2.31323
H         81.53369       -6.53698        1.78466
H         84.43742       -7.07396        0.82215
H         83.90030       -5.81001        1.98337
N         79.61324       -8.61339        1.35137
C         78.55006       -9.45122        1.86524
H         77.65236       -9.33492        1.22114
H         78.82875      -10.52538        1.88464
H         78.29496       -9.13100        2.89632
H         79.42778       -7.60043        1.29878
Ca        84.04903       -3.66669       -2.52738
O         85.74948       -2.55775        0.24483
H         86.21950       -3.42700        0.30562
H         84.79228       -2.78321        0.35753
O         86.68924       -5.06337       -2.25283
H         86.57100       -5.94664       -2.68418
H         86.97799       -5.27319       -1.32906
O         84.16576       -5.09961       -5.00611
H         83.80427       -4.40167       -5.60815
H         85.13844       -5.11021       -5.18421
O         84.13329       -1.63900       -5.02436
H         84.12954       -0.65110       -5.08855
H         84.68808       -1.93614       -5.78873

Ca 1.0



