%chk=apoCaM-CA-Ng.loop2.water4.frame804.chk
%nprocshared=20
%mem=10GB
%nosave
#b3lyp/svp scf=(tight,noincore,xqc) Test 
#IOP(5/87=12) Density=Current Pop=(MK,readradii) iop(6/33=2) iop(6/42=6)

apoCaM-CA-Ng.loop2.water4.frame804 

   -2  1 
C         35.39101       96.71209       83.89508
C         34.87151       97.94068       84.57920
O         35.62233       98.59814       85.28624
H         36.45543       96.53385       84.15799
H         34.79281       95.82729       84.19815
H         35.31274       96.84658       82.79562
N         33.57152       98.30777       84.41657
C         33.01651       99.52021       85.00058
C         33.41971      100.69120       84.12584
O         33.14255      100.66272       82.93356
C         31.48616       99.38295       85.13951
C         30.83288      100.52932       85.87190
O         29.63092      100.49786       86.07988
O         31.55059      101.57613       86.32527
H         32.96130       97.71109       83.83529
H         33.40347       99.63653       86.03837
H         31.28112       98.46185       85.73022
H         31.01739       99.26714       84.13922
N         34.09573      101.75153       84.64881
C         34.60685      102.83870       83.81648
C         35.80660      102.33878       83.01352
O         36.32698      101.28700       83.35357
C         35.05777      103.99219       84.72344
H         34.25992      101.77729       85.66666
H         33.78159      103.19884       83.16662
H         35.43447      104.86025       84.15551
H         34.20136      104.34053       85.33772
H         35.86831      103.64959       85.40237
N         36.36145      103.01456       81.96189
C         35.80816      104.19965       81.30602
C         34.46156      103.90214       80.66490
O         34.07361      102.74006       80.58362
C         36.78506      104.69813       80.20057
C         37.08064      103.63194       79.16133
O         37.85277      103.86559       78.24124
O         36.51910      102.41184       79.28094
H         37.23301      102.61008       81.58382
H         35.68537      105.01197       82.04495
H         37.74314      104.99260       80.68122
H         36.36652      105.59902       79.70136
N         33.69168      104.91149       80.18019
C         32.44193      104.68301       79.47641
C         31.25555      105.08639       80.31014
O         31.43529      105.50383       81.44742
H         33.99441      105.88971       80.32385
H         32.31923      103.61210       79.22381
H         32.46401      105.25959       78.52706
N         29.98309      105.00318       79.83409
C         29.62461      104.55787       78.48631
C         29.88770      103.06401       78.30508
O         29.39153      102.28652       79.10980
C         28.12576      104.86348       78.24532
C         27.66846      104.66400       76.81795
N         26.38747      104.93872       76.48232
O         28.44529      104.27818       75.95683
H         29.22729      105.32294       80.46233
H         30.19234      105.16435       77.74737
H         27.94511      105.93408       78.48804
H         27.49920      104.24678       78.92742
H         25.71881      105.27415       77.19123
H         26.06498      104.82325       75.51022
N         30.60290      102.58059       77.24058
C         30.76357      101.14434       77.03185
C         31.36104      100.79134       75.67665
O         30.67089      100.16021       74.88861
H         30.97683      103.24135       76.54283
H         29.75374      100.67774       77.07484
H         31.37585      100.70904       77.85025
N         32.63490      101.14422       75.33911
C         33.25191      100.84287       74.04143
C         34.50416       99.99554       74.20275
O         35.38774      100.35605       74.96896
C         33.60154      102.13735       73.28433
C         32.33829      102.88913       72.86260
O         34.41635      102.96248       74.07774
H         33.18870      101.66347       76.03034
H         32.54862      100.27998       73.38900
H         34.14014      101.84098       72.35080
H         35.00930      103.46597       73.46162
H         31.74286      103.19636       73.74702
H         32.61691      103.79020       72.27791
H         31.71255      102.23675       72.21419
N         34.64732       98.85247       73.46769
C         35.80374       97.96890       73.57574
C         37.06568       98.67640       73.07759
O         37.12974       99.05806       71.91776
C         35.60781       96.62267       72.79346
C         36.81586       95.67118       73.05692
C         34.29578       95.91696       73.20781
C         36.81760       94.39334       72.21566
H         33.89082       98.60245       72.81751
H         35.89887       97.69222       74.64344
H         35.55481       96.85343       71.70651
H         36.83412       95.37915       74.12727
H         37.76711       96.19367       72.82624
H         34.31028       95.66824       74.29023
H         33.40148       96.53481       73.00400
H         34.13887       94.98866       72.62547
H         37.72122       93.79594       72.46209
H         35.93870       93.75363       72.42693
H         36.84505       94.64768       71.13579
N         38.13378       98.80669       73.90725
C         39.44137       99.33133       73.54730
C         40.46206       98.19933       73.55977
O         41.29043       98.16835       72.66121
C         39.84489      100.45874       74.51328
C         38.87448      101.60645       74.44574
O         38.70085      102.20483       73.39545
O         38.19561      101.98374       75.54549
H         38.03229       98.47028       74.85921
H         39.43329       99.75477       72.51765
H         40.85439      100.83867       74.24152
H         39.88950      100.06849       75.55369
N         40.43471       97.20626       74.50606
C         41.30325       96.02827       74.47231
C         41.14632       95.21290       75.76973
O         40.81105       94.03824       75.70405
C         40.95721       95.21060       73.19047
C         41.80629       93.99730       72.90228
C         41.19408       92.74838       72.68993
C         43.20134       94.10700       72.77306
C         41.96379       91.63271       72.34905
C         43.96850       92.98504       72.44097
C         43.34996       91.75048       72.22491
H         39.74450       97.26307       75.26196
H         42.36042       96.36549       74.42775
H         41.07553       95.85356       72.29866
H         39.88418       94.92471       73.23756
H         40.11890       92.64060       72.76405
H         43.69460       95.05923       72.91811
H         41.48363       90.67891       72.17090
H         45.04221       93.07470       72.33946
H         43.94344       90.88649       71.95478
N         41.38352       95.77793       77.00079
C         41.28944       95.08778       78.28758
C         40.01885       94.28215       78.49131
O         40.09852       93.14514       78.93378
C         41.32630       96.24129       79.30347
C         42.26803       97.20989       78.63408
C         41.77750       97.16396       77.19379
H         42.18494       94.43815       78.41347
H         40.33454       96.74973       79.34572
H         41.60613       95.93948       80.33512
H         42.29956       98.23001       79.07328
H         43.28778       96.76518       78.67550
H         40.88631       97.81505       77.06812
H         42.60149       97.48824       76.52404
N         38.80993       94.83110       78.19137
C         37.52050       94.18943       78.44912
C         37.48624       92.79046       77.85956
O         37.30489       91.83926       78.60678
C         36.27170       94.98643       77.93487
C         36.27255       96.52648       78.15624
C         37.06109       97.24081       77.08079
O         37.26561       98.57805       77.05469
O         37.52863       96.59092       76.16094
H         38.85174       95.76888       77.80269
H         37.42222       94.12061       79.55564
H         35.39791       94.54949       78.46562
H         36.07891       94.79692       76.85467
H         36.64255       96.75726       79.17658
H         35.23216       96.90056       78.06149
N         37.68409       92.59596       76.52382
C         37.69307       91.28764       75.89848
H         36.91130       91.24875       75.11171
H         38.68379       91.11120       75.42853
H         37.50131       90.46820       76.62319
H         37.85495       93.41151       75.91618
Ca        36.78985      100.48362       78.15124
O         39.74762      100.62779       78.46705
H         39.58602      100.14158       79.31442
H         40.71203      100.49966       78.28545
O         34.79412      103.18676       77.14208
H         34.60645      104.15312       77.23779
H         34.21810      102.75351       77.82116
O         33.96693       99.74832       78.12455
H         33.88432       99.96653       79.08683
H         33.71551       98.79341       78.06254
O         36.75343       99.14841       80.79086
H         37.64056       99.49516       81.06121
H         36.15081       99.93154       80.85540

Ca 1.0



