%chk=apoCaM-CA-Ng.loop2.water3.frame603.chk
%nprocshared=20
%mem=10GB
%nosave
#b3lyp/svp scf=(tight,noincore,xqc) Test 
#IOP(5/87=12) Density=Current Pop=(MK,readradii) iop(6/33=2) iop(6/42=6)

apoCaM-CA-Ng.loop2.water3.frame603 

   -2  1 
C         61.97763        8.06341      -19.42546
C         61.34860        7.91251      -20.77829
O         61.55920        6.89723      -21.42686
H         62.64486        8.95120      -19.42496
H         61.18822        8.19906      -18.65716
H         62.57995        7.16604      -19.16783
N         60.56106        8.90606      -21.27573
C         59.95059        8.84267      -22.59755
C         58.98911        7.67097      -22.69210
O         58.01339        7.63774      -21.95634
C         59.19944       10.15655      -22.90459
C         58.61436       10.15817      -24.29093
O         59.34239       10.06549      -25.26652
O         57.28248       10.26320      -24.46145
H         60.41771        9.74899      -20.69711
H         60.76687        8.73425      -23.34696
H         59.89809       11.01667      -22.81848
H         58.38494       10.29901      -22.15985
N         59.19777        6.68333      -23.60717
C         58.26263        5.58007      -23.81729
C         58.09849        4.72502      -22.56199
O         58.98787        4.75274      -21.72277
C         58.77934        4.70852      -24.97631
H         60.03560        6.74724      -24.20695
H         57.28857        6.02701      -24.10075
H         59.77676        4.28963      -24.72025
H         58.11505        3.86035      -25.21648
H         58.88140        5.32554      -25.89424
N         57.02832        3.89281      -22.35429
C         55.86909        3.78214      -23.23930
C         54.97796        5.01120      -23.18621
O         55.25324        5.92467      -22.42239
C         55.09758        2.46972      -22.98036
C         54.34189        2.26939      -21.68990
O         54.23822        3.16739      -20.69130
O         53.76192        1.20576      -21.54533
H         57.05422        3.28764      -21.51910
H         56.22730        3.67128      -24.27672
H         55.82866        1.63665      -23.07367
H         54.35501        2.33493      -23.79447
N         53.87914        5.10243      -23.98895
C         52.99667        6.25683      -23.99044
C         53.66150        7.49379      -24.55553
O         54.80740        7.41643      -24.97648
H         53.63780        4.31693      -24.61017
H         52.65850        6.45397      -22.95752
H         52.10982        6.02579      -24.61438
N         53.02544        8.69877      -24.61476
C         51.66784        8.96919      -24.14636
C         51.67785        9.96572      -22.98529
O         50.60337       10.37124      -22.56415
C         50.82978        9.53203      -25.32475
C         50.62076        8.56155      -26.46889
N         49.90871        8.94321      -27.55442
O         51.07659        7.42968      -26.42330
H         53.54869        9.49522      -25.01434
H         51.15962        8.05661      -23.77312
H         51.32232       10.44858      -25.71808
H         49.81922        9.81327      -24.95649
H         49.51201        9.89195      -27.61811
H         49.75237        8.28712      -28.33468
N         52.83843       10.41294      -22.41527
C         52.88007       11.45306      -21.39824
C         52.26004       11.11947      -20.05076
O         52.22621       12.02786      -19.23293
H         53.74733       10.07120      -22.75713
H         52.36805       12.35117      -21.80833
H         53.94009       11.73129      -21.21039
N         51.75668        9.89061      -19.72048
C         51.09935        9.63077      -18.43099
C         51.87422        8.61809      -17.59185
O         52.89943        8.12564      -18.04253
C         49.61882        9.24907      -18.66907
C         48.85336       10.41829      -19.30077
O         49.51960        8.13098      -19.51302
H         51.81545        9.11786      -20.40014
H         51.09346       10.54860      -17.80454
H         49.11620        9.05119      -17.69392
H         49.34143        7.34152      -18.93931
H         49.28180       10.69356      -20.28639
H         47.78774       10.14435      -19.44665
H         48.89824       11.30834      -18.63610
N         51.46709        8.31600      -16.31695
C         52.28488        7.55659      -15.36814
C         51.76706        6.13512      -15.20032
O         50.64033        5.94922      -14.76227
C         52.33092        8.26566      -13.97044
C         53.22772        7.46610      -12.97674
C         52.82024        9.72102      -14.09764
C         53.18382        7.97769      -11.53524
H         50.58496        8.71961      -15.96744
H         53.32578        7.51181      -15.74387
H         51.29375        8.29043      -13.56511
H         54.27971        7.46376      -13.33374
H         52.88281        6.41238      -12.92518
H         52.16550       10.30007      -14.78106
H         52.78229       10.24072      -13.11840
H         53.86134        9.75269      -14.48210
H         53.80786        7.31671      -10.89579
H         53.58671        9.00542      -11.44713
H         52.14143        7.95137      -11.15134
N         52.59755        5.08258      -15.46474
C         52.28948        3.68397      -15.21332
C         53.26166        3.03406      -14.22200
O         53.01113        1.88784      -13.87329
C         52.38493        2.90834      -16.53788
C         51.43859        3.44535      -17.56828
O         50.11091        3.41226      -17.34999
O         51.86906        3.90739      -18.61193
H         53.51074        5.27260      -15.87300
H         51.26560        3.59181      -14.78798
H         52.15704        1.83371      -16.37391
H         53.43064        2.98546      -16.91807
N         54.38617        3.65415      -13.73623
C         55.29823        2.98945      -12.80637
C         56.74528        3.47018      -13.03179
O         57.30930        4.08779      -12.13849
C         54.75972        3.19805      -11.36439
C         55.16543        2.10741      -10.39549
C         55.89683        2.38773       -9.22904
C         54.74372        0.78349      -10.63401
C         56.20001        1.35977       -8.32439
C         55.04825       -0.23608       -9.73061
C         55.77502        0.05100       -8.57510
H         54.60036        4.61939      -14.00456
H         55.27431        1.90034      -13.00392
H         53.64947        3.14160      -11.38390
H         55.01484        4.21921      -11.00520
H         56.22120        3.39697       -9.01183
H         54.16060        0.54015      -11.51334
H         56.75682        1.57636       -7.42213
H         54.71029       -1.24682       -9.92353
H         56.00161       -0.74097       -7.87228
N         57.41914        3.22837      -14.20970
C         58.80514        3.62655      -14.48960
C         59.08000        5.11883      -14.64699
O         60.21688        5.45775      -14.94908
C         59.11161        2.95932      -15.83791
C         58.23149        1.73589      -15.79303
C         56.93989        2.33082      -15.24194
H         59.45186        3.18980      -13.69469
H         58.71688        3.59293      -16.66673
H         60.19253        2.77638      -16.02451
H         58.12162        1.21030      -16.76454
H         58.65826        1.03158      -15.04162
H         56.41986        2.93031      -16.02147
H         56.29528        1.50647      -14.88067
N         58.11495        6.06428      -14.47218
C         58.37445        7.49583      -14.59309
C         58.60463        8.01360      -13.19803
O         59.65243        8.58822      -12.93933
C         57.24454        8.30862      -15.29395
C         56.80439        7.79261      -16.68167
C         55.87433        6.62656      -16.59028
O         55.40917        6.02857      -17.69965
O         55.49812        6.23475      -15.50577
H         57.20898        5.76151      -14.11046
H         59.29316        7.66682      -15.19983
H         57.64658        9.33538      -15.43734
H         56.34485        8.41100      -14.64783
H         57.68769        7.54586      -17.30678
H         56.21832        8.58872      -17.18770
N         57.68590        7.75852      -12.22246
C         57.87918        8.09821      -10.83150
H         58.82825        8.64604      -10.65929
H         57.03027        8.71982      -10.48354
H         57.90640        7.15912      -10.23737
H         56.82250        7.24646      -12.45819
Ca        54.69320        5.09186      -19.62026
O         57.60770        4.81170      -18.95361
H         57.38588        5.38927      -19.72708
H         57.25578        3.91872      -19.19705
O         51.76572        5.97592      -20.71215
H         50.99559        5.79250      -21.30727
H         51.36607        6.37060      -19.89934
O         55.20164        8.14875      -20.05402
H         55.72987        7.81110      -20.81715
H         55.86094        8.64545      -19.50998

Ca 1.0



