%chk=apoCaM-CA-Ng.loop2.water4.frame355.chk
%nprocshared=20
%mem=10GB
%nosave
#b3lyp/svp scf=(tight,noincore,xqc) Test 
#IOP(5/87=12) Density=Current Pop=(MK,readradii) iop(6/33=2) iop(6/42=6)

apoCaM-CA-Ng.loop2.water4.frame355 

   -2  1 
C         61.70251      101.26330       31.72509
C         60.46286      102.08101       31.51281
O         59.39898      101.68136       31.96402
H         62.45868      101.85806       32.27824
H         61.47463      100.34227       32.30426
H         62.12007      100.96651       30.74008
N         60.52832      103.25598       30.82592
C         59.35013      104.07012       30.54736
C         58.41450      103.29718       29.63232
O         58.80974      102.97406       28.52226
C         59.76979      105.40489       29.89980
C         58.58985      106.29619       29.63070
O         58.34241      106.65881       28.49183
O         57.80488      106.70562       30.64558
H         61.45229      103.57564       30.49454
H         58.85075      104.30583       31.51452
H         60.31582      105.20408       28.95109
H         60.46051      105.94079       30.58680
N         57.16965      102.94004       30.05520
C         56.25409      102.10413       29.28067
C         56.01967      100.79816       30.02584
O         56.63347      100.60501       31.06735
C         54.95698      102.87492       29.03126
H         56.86594      103.23421       30.99689
H         56.68714      101.84498       28.28956
H         54.46262      103.13756       29.98953
H         55.18598      103.80897       28.47402
H         54.25611      102.27828       28.41118
N         55.16151       99.84079       29.55645
C         55.02600       98.53685       30.20493
C         53.69189       98.42397       30.91064
O         52.94640       97.48027       30.68234
C         55.24941       97.39603       29.18812
C         56.56085       97.53741       28.48222
O         56.75877       98.46989       27.72292
O         57.52563       96.63479       28.69928
H         54.60534      100.02458       28.70829
H         55.79328       98.42385       31.00250
H         54.44153       97.37111       28.42536
H         55.23833       96.43089       29.74259
N         53.33722       99.37515       31.81681
C         52.09818       99.33476       32.56800
C         52.18568       98.50006       33.83374
O         51.19463       98.46986       34.54886
H         53.94972      100.19413       31.94774
H         51.26004       99.00896       31.91280
H         51.86547      100.36998       32.89771
N         53.31963       97.82613       34.20432
C         53.44112       97.09680       35.46635
C         54.60113       97.66416       36.27491
O         55.72666       97.67133       35.79547
C         53.65145       95.58622       35.24343
C         52.45167       94.91231       34.61750
N         52.08726       95.16582       33.33965
O         51.80817       94.10797       35.27577
H         54.14427       97.83759       33.58678
H         52.51147       97.19502       36.06974
H         53.80542       95.13015       36.24823
H         54.55971       95.38623       34.63606
H         52.62866       95.81273       32.75202
H         51.26884       94.69324       32.92761
N         54.38313       98.15585       37.52767
C         55.40940       98.74134       38.38166
C         56.46793       97.76221       38.85200
O         56.48962       96.61747       38.42044
H         53.42109       98.14351       37.90004
H         54.90145       99.11411       39.29843
H         55.88450       99.60847       37.87690
N         57.34772       98.15614       39.82256
C         58.30248       97.24139       40.44949
C         59.50795       96.93593       39.56986
O         60.20514       95.97772       39.87024
C         58.76214       97.74138       41.84739
C         59.61996       99.01617       41.80932
O         57.65451       97.90735       42.69894
H         57.23727       99.10754       40.20161
H         57.75812       96.29053       40.64078
H         59.40109       96.95282       42.30300
H         57.20095       98.75701       42.46089
H         59.90504       99.31132       42.84023
H         60.55249       98.81655       41.25538
H         59.08357       99.86252       41.33297
N         59.83354       97.71384       38.49447
C         60.95922       97.43233       37.60582
C         60.39964       97.12369       36.23938
O         59.43467       97.75023       35.82302
C         61.98186       98.60962       37.53998
C         62.52498       99.02591       38.92909
C         63.16172       98.28047       36.59802
C         63.21988       97.91466       39.72711
H         59.25120       98.53456       38.27355
H         61.51719       96.53463       37.95001
H         61.46817       99.50314       37.12053
H         61.68638       99.42559       39.52457
H         63.24558       99.86258       38.79724
H         62.81021       98.11156       35.56051
H         63.87705       99.12939       36.56128
H         63.70523       97.37118       36.93036
H         64.09831       97.51147       39.18416
H         63.57440       98.32571       40.69546
H         62.52208       97.08626       39.95405
N         60.99258       96.17303       35.47212
C         60.49325       95.77392       34.16933
C         60.28449       94.25285       34.13426
O         59.95303       93.72803       33.08064
C         61.48633       96.30955       33.11688
C         60.95272       96.35077       31.70859
O         59.71961       95.90073       31.40560
O         61.63883       96.84592       30.82878
H         61.86206       95.73232       35.81182
H         59.51797       96.26808       33.96485
H         62.44168       95.74807       33.16637
H         61.70346       97.37112       33.36990
N         60.42541       93.48253       35.26280
C         60.25442       92.03591       35.28592
C         61.40590       91.38471       34.52593
O         62.54253       91.56497       34.94487
C         60.27958       91.45055       36.72894
C         59.09917       91.77911       37.63166
C         58.87681       93.07072       38.15120
C         58.22031       90.74371       38.01382
C         57.80624       93.31208       39.01875
C         57.15163       90.99335       38.87969
C         56.94498       92.27713       39.38264
H         60.66328       93.93061       36.15121
H         59.26375       91.77824       34.85654
H         61.22173       91.72725       37.25054
H         60.29834       90.34427       36.60380
H         59.52667       93.89737       37.92325
H         58.36188       89.73466       37.64754
H         57.64916       94.30214       39.41890
H         56.48755       90.18803       39.16679
H         56.12223       92.46858       40.05992
N         61.21685       90.58849       33.43191
C         62.29064       89.86071       32.76674
C         63.29702       90.78415       32.09366
O         64.48823       90.54536       32.22991
C         61.54160       88.91600       31.81726
C         60.27577       89.67329       31.48854
C         59.92481       90.30475       32.83328
H         62.85185       89.20838       33.47401
H         62.13080       88.53142       30.95816
H         61.20763       88.03959       32.42025
H         60.54374       90.47470       30.77100
H         59.45824       89.07210       31.03667
H         59.31313       91.21073       32.63946
H         59.37875       89.60185       33.50106
N         62.90030       91.88081       31.39739
C         63.82183       92.81403       30.74427
C         64.82180       93.39900       31.72569
O         65.98476       93.51516       31.36402
C         63.02265       93.94939       30.08744
C         62.19138       93.43587       28.90266
C         61.17871       94.45149       28.48951
O         61.52429       95.67762       28.05554
O         59.99319       94.17322       28.58458
H         61.89244       92.08659       31.36708
H         64.39198       92.29671       29.94046
H         63.69281       94.75666       29.71517
H         62.36616       94.36887       30.87198
H         61.63194       92.52250       29.19422
H         62.85422       93.17220       28.05175
N         64.45404       93.76350       32.98643
C         65.38155       94.32134       33.95249
H         66.39586       94.47935       33.52709
H         64.99939       95.30094       34.30655
H         65.47336       93.63384       34.81944
H         63.48135       93.61549       33.29223
Ca        59.64529       96.89010       28.00833
O         60.73248       97.90374       25.34249
H         59.74362       97.95318       25.32485
H         60.92983       96.93593       25.41356
O         59.00024       99.93389       27.67508
H         59.54134      100.75487       27.75305
H         58.78040       99.87535       26.71180
O         58.73677       98.62820       30.75052
H         59.20316       99.48157       30.56926
H         58.58158       98.62903       31.72858
O         61.99720       99.54759       28.17881
H         61.86748      100.40161       27.69515
H         62.95440       99.33541       28.04551

Ca 1.0



