%chk=apoCaM-CA-Ng.loop2.water4.frame303.chk
%nprocshared=20
%mem=10GB
%nosave
#b3lyp/svp scf=(tight,noincore,xqc) Test 
#IOP(5/87=12) Density=Current Pop=(MK,readradii) iop(6/33=2) iop(6/42=6)

apoCaM-CA-Ng.loop2.water4.frame303 

   -2  1 
C         55.84286       48.76839       24.69209
C         54.74973       49.61974       25.26999
O         54.37204       49.39401       26.40924
H         56.75422       48.85246       25.31977
H         55.51244       47.70797       24.67138
H         56.09458       49.07708       23.65568
N         54.20027       50.63389       24.54462
C         53.10577       51.46368       25.03813
C         51.84151       50.62915       25.15880
O         51.42040       50.05633       24.16191
C         52.86524       52.64258       24.07173
C         51.79952       53.57401       24.58080
O         51.95534       54.19634       25.76526
O         50.79320       53.77653       23.92060
H         54.58402       50.82631       23.60597
H         53.39739       51.89614       26.02158
H         52.58456       52.25586       23.06634
H         53.80621       53.22469       23.96579
N         51.16714       50.52894       26.34239
C         49.93679       49.74741       26.46457
C         50.17137       48.25408       26.26212
O         49.20016       47.52607       26.11250
C         49.28248       49.97752       27.83104
H         51.51896       51.05104       27.15989
H         49.23184       50.11030       25.68307
H         49.07465       51.05943       27.97444
H         48.31971       49.42709       27.89978
H         49.95439       49.63069       28.64567
N         51.43061       47.72569       26.27736
C         51.76127       46.32348       26.06534
C         51.08204       45.46134       27.12331
O         50.34739       44.53753       26.80104
C         51.45145       45.94347       24.59931
C         52.03139       44.62417       24.17060
O         51.87397       44.25080       23.01951
O         52.75330       43.86616       25.01966
H         52.22324       48.34400       26.47223
H         52.86213       46.22502       26.20334
H         51.90619       46.71627       23.93978
H         50.35457       45.94568       24.42433
N         51.25997       45.77791       28.43640
C         50.55291       45.14550       29.53695
C         51.17605       43.86568       30.05486
O         50.70594       43.39740       31.08297
H         51.82899       46.60829       28.66172
H         49.47720       45.00939       29.28757
H         50.59225       45.85361       30.39299
N         52.22158       43.23574       29.44317
C         52.84320       42.04862       30.02676
C         53.65647       42.44569       31.25127
O         54.50215       43.32271       31.14513
C         53.73741       41.31811       29.00525
C         54.22840       39.99973       29.57292
N         55.54793       39.72705       29.69488
O         53.41162       39.16250       29.92833
H         52.57547       43.59243       28.54365
H         52.03925       41.32418       30.29170
H         54.57704       41.97050       28.69461
H         53.13569       41.08941       28.09940
H         56.26317       40.39782       29.39449
H         55.86006       38.82830       30.09148
N         53.46125       41.82433       32.44554
C         54.18266       42.16651       33.66201
C         55.67930       41.96018       33.54644
O         56.09871       40.85938       33.21764
H         52.75796       41.07201       32.50432
H         53.82217       41.50235       34.47793
H         53.94962       43.21245       33.95256
N         56.54711       42.96903       33.86700
C         57.99484       42.76123       33.96267
C         58.72170       43.00139       32.64739
O         59.89692       42.66153       32.58012
C         58.62427       43.58734       35.12069
C         58.61857       45.10923       34.89160
O         58.01348       43.26568       36.34610
H         56.15020       43.86356       34.18685
H         58.16485       41.69429       34.23182
H         59.69429       43.29472       35.20627
H         57.12665       43.71054       36.37538
H         57.59052       45.50981       34.78189
H         59.10341       45.61936       35.75050
H         59.20003       45.35858       33.98574
N         58.11493       43.58249       31.57061
C         58.77169       43.74538       30.27155
C         57.97760       43.04751       29.19053
O         56.82843       42.70910       29.42858
C         59.03633       45.23714       29.88176
C         57.80020       46.11442       29.51125
C         59.92238       45.93436       30.92154
C         56.81289       46.47810       30.62550
H         57.14208       43.88434       31.67269
H         59.76409       43.24369       30.30723
H         59.63958       45.19896       28.94712
H         57.23621       45.63831       28.68098
H         58.19498       47.07824       29.12016
H         59.39372       46.03332       31.88540
H         60.85614       45.35525       31.08407
H         60.20316       46.95014       30.56995
H         56.06316       47.18966       30.21948
H         56.23670       45.61005       30.97885
H         57.32338       46.97471       31.47564
N         58.52079       42.82196       27.96152
C         57.77923       42.24200       26.84788
C         58.39672       40.91642       26.37619
O         57.96161       40.39723       25.35943
C         57.71898       43.31232       25.73524
C         56.70375       43.04854       24.64962
O         55.90069       41.96674       24.67909
O         56.56830       43.86378       23.75178
H         59.49939       43.10649       27.79135
H         56.72944       42.03209       27.14986
H         58.73265       43.44956       25.29987
H         57.41096       44.27589       26.19909
N         59.36357       40.26571       27.09680
C         59.90661       38.97052       26.68378
C         60.80592       39.15011       25.46404
O         61.74819       39.91989       25.57794
C         60.75009       38.34318       27.81937
C         61.17709       36.93662       27.46084
C         60.22119       35.90693       27.38633
C         62.52313       36.64140       27.18633
C         60.60442       34.60904       27.03704
C         62.90103       35.34218       26.82964
C         61.94291       34.32736       26.75533
H         59.67689       40.66167       27.99424
H         59.04909       38.29247       26.49863
H         60.16885       38.29916       28.76598
H         61.63511       38.99105       28.00650
H         59.17869       36.10969       27.59844
H         63.27641       37.41753       27.23113
H         59.86259       33.82251       26.98170
H         63.93698       35.12189       26.60736
H         62.23703       33.32283       26.47937
N         60.63889       38.47465       24.28174
C         61.55741       38.59502       23.15141
C         61.61779       39.96114       22.47770
O         62.35527       40.08214       21.50914
C         61.04267       37.55222       22.15180
C         60.45823       36.50470       23.07332
C         59.71124       37.38276       24.07195
H         62.57022       38.30278       23.51182
H         60.18821       37.97737       21.57527
H         61.80952       37.18917       21.43353
H         59.83268       35.73624       22.57282
H         61.30062       35.99766       23.60080
H         58.77876       37.78590       23.61935
H         59.48865       36.78190       24.97208
N         60.88280       41.02752       22.91249
C         60.88715       42.33022       22.25552
C         61.53128       43.40009       23.13045
O         61.60514       44.53959       22.68990
C         59.43695       42.74983       21.95737
C         58.64248       41.73637       21.12258
C         57.22041       42.20575       21.02755
O         56.95596       43.26743       20.48608
O         56.24117       41.49682       21.61954
H         60.27478       40.93090       23.73577
H         61.46043       42.29155       21.30357
H         59.43112       43.73453       21.43916
H         58.91896       42.86744       22.93214
H         58.65006       40.74820       21.63159
H         59.08300       41.61889       20.10955
N         62.01862       43.12673       24.37408
C         62.61161       44.14415       25.21213
H         63.49812       44.58250       24.70779
H         61.86673       44.94004       25.42442
H         62.93491       43.69587       26.17630
H         61.97242       42.17722       24.75663
Ca        54.20737       42.43703       21.89763
O         53.81235       39.70103       22.99979
H         54.64350       39.37387       23.42668
H         53.28662       38.88369       22.81179
O         54.00742       45.28706       20.65096
H         54.66471       44.70197       20.19772
H         53.77343       45.96678       19.97054
O         51.39954       41.35465       23.91632
H         51.06599       41.54751       23.00421
H         50.83384       41.90995       24.50976
O         52.16556       41.78521       19.80390
H         53.09943       41.68149       19.49043
H         52.09646       41.17820       20.58347

Ca 1.0



