%chk=apoCaM-CA-Ng.loop2.water4.frame85.chk
%nprocshared=20
%mem=10GB
%nosave
#b3lyp/svp scf=(tight,noincore,xqc) Test 
#IOP(5/87=12) Density=Current Pop=(MK,readradii) iop(6/33=2) iop(6/42=6)

apoCaM-CA-Ng.loop2.water4.frame85 

   -2  1 
C         46.09373       45.50327      113.82009
C         46.69937       44.97609      115.08749
O         47.88532       45.17057      115.31281
H         45.24800       46.18215      114.05299
H         46.84768       46.05165      113.21602
H         45.71694       44.64850      113.21712
N         45.93110       44.25447      115.94907
C         46.44926       43.59147      117.13920
C         46.31529       42.08586      116.97686
O         46.29138       41.38316      117.97727
C         45.69858       44.07051      118.40013
C         45.89222       45.53491      118.66479
O         44.82608       46.35414      118.73167
O         47.01166       45.98287      118.85749
H         44.93536       44.11065      115.71736
H         47.53164       43.80244      117.29212
H         46.08467       43.52456      119.28949
H         44.61496       43.84424      118.29722
N         46.28499       41.51254      115.73494
C         46.23366       40.07813      115.49476
C         47.47129       39.40832      116.06682
O         47.35917       38.48695      116.86415
C         44.91183       39.48766      116.01238
H         46.33691       42.10995      114.89695
H         46.25350       39.91117      114.39478
H         44.81141       39.60049      117.11117
H         44.05741       40.00714      115.52767
H         44.85061       38.40735      115.76501
N         48.70762       39.85962      115.69623
C         49.97664       39.29435      116.15731
C         50.23159       39.49713      117.63884
O         51.26845       39.05236      118.11317
C         50.14481       37.83398      115.65759
C         50.23542       37.81454      114.14565
O         50.45938       36.77785      113.54328
O         50.12717       38.98328      113.48407
H         48.75898       40.64925      115.03428
H         50.80899       39.86594      115.69578
H         49.32449       37.17799      116.01528
H         51.10465       37.42863      116.04378
N         49.39763       40.24221      118.41820
C         49.69264       40.55994      119.79738
C         50.85711       41.51771      119.94617
O         51.23858       41.74630      121.08512
H         48.53535       40.62937      118.03288
H         49.88945       39.61560      120.34832
H         48.81031       41.05115      120.26420
N         51.44195       42.15772      118.88108
C         52.55020       43.09532      119.05253
C         52.11977       44.51636      118.76057
O         51.03952       44.73168      118.22549
C         53.77631       42.67960      118.19973
C         53.61724       42.81515      116.69667
N         54.63801       42.46504      115.87911
O         52.58747       43.25675      116.21079
H         51.07381       42.01610      117.92944
H         52.87324       43.08631      120.11441
H         54.02742       41.62437      118.44045
H         54.64260       43.31231      118.48873
H         55.51841       42.09491      116.26569
H         54.55227       42.56647      114.85631
N         52.92508       45.54661      119.13815
C         52.60717       46.94040      118.89225
C         53.74971       47.63721      118.20577
O         54.79477       47.03934      117.98438
H         53.79469       45.33409      119.65066
H         52.42583       47.45299      119.86009
H         51.69288       47.04215      118.26754
N         53.59545       48.92798      117.81389
C         54.63457       49.67636      117.12194
C         54.43028       49.62801      115.60835
O         55.26292       50.17459      114.89880
C         54.79506       51.09842      117.74012
C         53.53099       51.97484      117.71687
O         55.27723       51.00268      119.05905
H         52.66876       49.36180      117.93898
H         55.61915       49.17793      117.26287
H         55.57381       51.63235      117.15418
H         54.59187       50.53606      119.60540
H         53.15827       52.10712      116.68147
H         52.72392       51.54469      118.34600
H         53.76931       52.97529      118.14012
N         53.39918       48.92614      115.03938
C         53.24343       48.71802      113.59687
C         53.15144       47.22453      113.25519
O         53.15195       46.39209      114.15270
C         51.99978       49.48696      113.07097
C         50.71458       49.10714      113.85083
C         52.27420       51.00069      113.11933
C         49.43768       49.59958      113.17472
H         52.69229       48.48796      115.64559
H         54.13624       49.09633      113.05153
H         51.85958       49.22140      112.00231
H         50.76286       49.51399      114.88510
H         50.63066       48.00127      113.91746
H         51.44529       51.57753      112.66550
H         52.42646       51.34570      114.16370
H         53.19046       51.23507      112.53437
H         49.42109       50.70273      113.07883
H         49.34808       49.13896      112.16765
H         48.56081       49.29222      113.78237
N         53.08822       46.82406      111.94577
C         52.98506       45.42341      111.52120
C         53.53425       45.21697      110.08600
O         53.19207       44.23983      109.43676
C         51.51259       44.96968      111.69322
C         51.27272       43.48921      111.54074
O         52.28857       42.62732      111.33794
O         50.13552       43.05680      111.64044
H         53.10163       47.55535      111.22178
H         53.62913       44.80453      112.18519
H         50.88094       45.52396      110.96568
H         51.16753       45.23048      112.71779
N         54.48142       46.05761      109.57439
C         55.16049       45.89299      108.28413
C         54.19550       45.95198      107.09894
O         53.51815       46.96094      106.98665
C         56.17505       47.05304      108.13893
C         56.92177       47.05823      106.83122
C         57.82733       46.03449      106.51570
C         56.72121       48.10837      105.91795
C         58.52418       46.06396      105.30378
C         57.41536       48.13191      104.70749
C         58.31846       47.11172      104.40091
H         54.79267       46.84324      110.16105
H         55.71005       44.93343      108.30776
H         56.90787       47.02454      108.97396
H         55.60638       48.00593      108.23627
H         57.99842       45.22153      107.21004
H         56.02465       48.90806      106.14014
H         59.22636       45.27636      105.06582
H         57.25359       48.94353      104.00990
H         58.85945       47.13520      103.46450
N         54.11973       44.98025      106.12472
C         53.26401       45.08231      104.94257
C         51.78845       45.07276      105.28629
O         51.01164       45.74221      104.62027
C         53.62705       43.85017      104.10384
C         55.06670       43.61113      104.51055
C         54.97984       43.81769      106.01804
H         53.54966       46.00223      104.38278
H         53.05045       42.96406      104.45369
H         53.45358       43.97637      103.01192
H         55.47808       42.62758      104.19879
H         55.69895       44.42218      104.07959
H         54.46438       42.94814      106.48611
H         55.99794       43.94101      106.42810
N         51.34323       44.34570      106.35243
C         49.95449       44.32209      106.80944
C         49.45815       45.68740      107.29727
O         48.28341       45.78556      107.62355
C         49.80834       43.28522      107.94777
C         49.96664       41.84360      107.42894
C         49.89861       40.87156      108.56676
O         50.89889       40.82713      109.46310
O         48.94050       40.12566      108.68987
H         52.03550       43.78637      106.87346
H         49.30082       44.01369      105.96389
H         48.79592       43.35651      108.40363
H         50.55474       43.51343      108.74107
H         50.92817       41.69133      106.89545
H         49.13399       41.64769      106.71876
N         50.27127       46.77943      107.36686
C         49.84249       48.09743      107.78187
H         48.76761       48.13073      108.05006
H         50.44430       48.41712      108.65856
H         50.02302       48.81297      106.95071
H         51.25224       46.69792      107.11318
Ca        50.57058       39.90770      111.48562
O         51.13404       37.28396      110.19024
H         50.90060       36.65276      110.91578
H         50.26430       37.65883      109.90109
O         53.47273       39.60158      112.40382
H         54.32501       39.51809      111.90718
H         53.49042       38.85942      113.05904
O         47.86227       40.69134      112.13627
H         47.63690       40.50890      111.18954
H         47.43669       41.56284      112.33232
O         51.39671       41.54919      113.94178
H         52.36519       41.72274      114.04313
H         50.95094       42.24867      114.48161

Ca 1.0



