%chk=apoCaM-CA-Ng.loop2.water4.frame1001.chk
%nprocshared=20
%mem=10GB
%nosave
#b3lyp/svp scf=(tight,noincore,xqc) Test 
#IOP(5/87=12) Density=Current Pop=(MK,readradii) iop(6/33=2) iop(6/42=6)

apoCaM-CA-Ng.loop2.water4.frame1001 

   -2  1 
C         35.12157       34.10628       29.61314
C         34.10340       34.25211       28.51141
O         34.35162       35.02389       27.59675
H         36.00520       34.75245       29.42001
H         34.68482       34.39968       30.58965
H         35.47342       33.05313       29.65908
N         32.94200       33.53279       28.47407
C         32.53148       32.57112       29.49543
C         31.09943       32.83171       29.96161
O         30.44421       33.72478       29.44278
C         32.68077       31.13027       28.95482
C         31.57870       30.73395       27.97274
O         31.59460       31.49109       26.79809
O         31.66976       29.38444       27.61861
H         32.33540       33.65777       27.64985
H         33.20114       32.64477       30.37583
H         32.59629       30.43046       29.81319
H         33.69182       30.98636       28.51461
N         30.54804       32.04036       30.92902
C         29.18142       32.12582       31.44468
C         28.08800       31.67974       30.46825
O         26.94966       31.60481       30.91077
C         28.88862       33.51911       32.02329
H         31.14966       31.32333       31.36105
H         29.11888       31.40552       32.29113
H         28.87884       34.29892       31.23514
H         27.89538       33.52909       32.52063
H         29.65665       33.78334       32.78082
N         28.32366       31.35728       29.15917
C         27.27770       30.90131       28.24375
C         27.66240       29.59561       27.56317
O         28.67803       29.54465       26.88506
C         26.94110       32.00651       27.21442
C         28.08991       32.49991       26.36994
O         28.48145       33.78442       26.46566
O         28.63533       31.76997       25.55895
H         29.26497       31.46337       28.77343
H         26.32761       30.72791       28.79476
H         26.54464       32.87306       27.78614
H         26.12790       31.65203       26.54336
N         26.86436       28.49308       27.66460
C         27.12010       27.28115       26.90040
C         26.88152       27.46594       25.40337
O         27.13630       26.52764       24.66234
H         26.03693       28.51404       28.27947
H         26.43566       26.47445       27.24296
H         28.16221       26.94356       27.09284
N         26.33955       28.61134       24.88653
C         26.05677       28.79890       23.46096
C         27.33010       28.97686       22.64009
O         28.41229       29.04207       23.20808
C         25.13717       30.02407       23.27095
C         23.80561       29.82753       23.95311
N         22.96427       28.84595       23.54981
O         23.47901       30.56711       24.86928
H         26.04661       29.35575       25.53300
H         25.52415       27.89827       23.08482
H         24.93250       30.19953       22.19595
H         25.64875       30.92324       23.68369
H         23.21513       28.22401       22.76735
H         22.05251       28.71330       24.01140
N         27.26654       29.02477       21.27221
C         28.44987       29.10820       20.42758
C         29.13950       30.45082       20.53153
O         30.19312       30.50128       21.14683
H         26.35190       28.91523       20.80979
H         28.20105       28.91123       19.36428
H         29.14378       28.29643       20.73674
N         28.67211       31.59671       19.95220
C         27.49121       31.71767       19.10074
C         27.88076       32.24966       17.71803
O         27.45924       31.67124       16.72715
C         26.45927       32.66272       19.76699
C         25.17482       32.78464       18.93276
O         26.10548       32.16189       21.02857
H         29.21657       32.45523       20.12546
H         26.98163       30.73992       18.97323
H         26.88153       33.68761       19.87726
H         26.79292       32.47412       21.67244
H         25.38235       33.22389       17.93441
H         24.70543       31.78627       18.79403
H         24.44687       33.44495       19.45007
N         28.63614       33.38370       17.58578
C         28.87702       34.10233       16.33259
C         27.52944       34.63450       15.83258
O         27.06621       34.20048       14.78662
C         29.65026       33.26437       15.25673
C         30.88560       32.55382       15.86713
C         30.07955       34.20078       14.09883
C         31.65862       31.69561       14.85789
H         29.02524       33.81578       18.43437
H         29.53476       34.96795       16.56059
H         28.97937       32.47635       14.85170
H         30.53875       31.86999       16.67067
H         31.57923       33.29687       16.31617
H         30.80018       34.96448       14.46600
H         30.55169       33.63851       13.26948
H         29.21602       34.73443       13.65520
H         32.47338       31.15116       15.37888
H         30.98423       30.95294       14.38029
H         32.13259       32.31880       14.07234
N         26.78528       35.53382       16.54483
C         27.23808       36.20492       17.75802
C         28.36833       37.17369       17.46031
O         29.37926       37.11726       18.14629
C         26.07878       36.85648       18.55806
C         25.22485       37.92013       17.91761
O         24.24188       38.48143       18.64633
O         25.37556       38.26952       16.76163
H         25.84544       35.76342       16.18777
H         27.60190       35.45968       18.48538
H         26.51761       37.29123       19.48394
H         25.38889       36.04176       18.86952
N         28.28137       38.07241       16.43941
C         29.28576       39.08540       16.15512
C         28.60083       40.45251       16.13796
O         27.79365       40.66771       15.23982
C         29.91069       38.78683       14.77367
C         30.95418       39.79627       14.35664
C         30.69431       40.67666       13.29104
C         32.19653       39.85977       15.01063
C         31.65634       41.60806       12.89186
C         33.16249       40.78555       14.59820
C         32.89116       41.66041       13.54201
H         27.46830       38.03517       15.81121
H         30.09551       39.05664       16.91342
H         29.08753       38.77171       14.02507
H         30.36781       37.77288       14.76387
H         29.74335       40.64934       12.77373
H         32.42275       39.18423       15.82602
H         31.44445       42.28715       12.07580
H         34.12337       40.82439       15.09483
H         33.63740       42.37790       13.22530
N         28.85419       41.44540       17.04809
C         29.72179       41.35044       18.21686
C         29.31668       40.26414       19.19981
O         28.27520       39.64867       19.03355
C         29.55492       42.71659       18.89838
C         29.30193       43.62768       17.72054
C         28.33705       42.78833       16.89010
H         30.75662       41.18568       17.84366
H         28.60807       42.72171       19.48996
H         30.38919       43.00798       19.57055
H         28.92937       44.64400       17.96856
H         30.26145       43.72180       17.16124
H         27.29459       42.81906       17.27605
H         28.37604       43.14870       15.83764
N         30.13747       39.96068       20.24441
C         29.88616       38.85236       21.16093
C         31.16871       38.47265       21.90943
O         31.18856       38.50042       23.13173
C         28.70004       39.15337       22.11581
C         28.87907       40.44398       22.93953
C         27.84073       40.53227       24.02051
O         27.05493       41.46488       24.05119
O         27.79801       39.59282       24.98639
H         31.02011       40.48653       20.33170
H         29.62046       37.94566       20.57726
H         28.59557       38.27760       22.79455
H         27.74977       39.23556       21.54438
H         28.81783       41.32252       22.26038
H         29.86374       40.47358       23.44369
N         32.29420       38.05658       21.25986
C         32.40431       37.91508       19.82265
H         33.41462       37.53585       19.56194
H         31.65458       37.18760       19.45207
H         32.27415       38.88930       19.31284
H         33.11886       37.80107       21.82507
Ca        31.50805       29.72581       25.38837
O         31.90725       32.16624       23.71224
H         31.14877       32.12367       23.07785
H         32.43151       32.95412       23.42279
O         31.84296       28.69491       22.78395
H         31.08233       28.25925       22.32504
H         32.64399       28.39580       22.28707
O         34.34645       29.89627       24.75311
H         34.47988       30.39301       25.59935
H         34.32741       28.94405       25.02483
O         30.56121       26.89015       25.02922
H         29.62342       26.68815       24.79462
H         31.08893       26.42643       24.33250

Ca 1.0



