%chk=apoCaM-CA-Ng.loop2.water4.frame217.chk
%nprocshared=20
%mem=10GB
%nosave
#b3lyp/svp scf=(tight,noincore,xqc) Test 
#IOP(5/87=12) Density=Current Pop=(MK,readradii) iop(6/33=2) iop(6/42=6)

apoCaM-CA-Ng.loop2.water4.frame217 

   -2  1 
C          9.53136       15.28599       73.67594
C          8.96500       13.99911       73.14723
O          9.31690       13.59095       72.04949
H         10.26809       15.72043       72.96702
H          8.71281       16.01695       73.83993
H         10.04495       15.09657       74.64338
N          8.10137       13.27902       73.91368
C          7.56319       11.98545       73.50927
C          6.48088       12.16102       72.45582
O          5.52835       12.88996       72.69721
C          7.00397       11.24621       74.74201
C          6.63559        9.80625       74.47653
O          6.77461        9.30353       73.37183
O          6.17761        9.04895       75.49013
H          7.87952       13.63873       74.85563
H          8.40486       11.35960       73.13422
H          6.12274       11.79053       75.14459
H          7.79364       11.23320       75.52462
N          6.55951       11.49738       71.26977
C          5.57795       11.61865       70.19587
C          6.26101       12.19605       68.96960
O          7.42188       12.57434       69.06888
C          4.93918       10.24883       69.93574
H          7.36416       10.87179       71.10758
H          4.75387       12.31310       70.47191
H          4.15850       10.31434       69.14888
H          5.69935        9.50114       69.63036
H          4.43533        9.89595       70.86199
N          5.60659       12.31744       67.77770
C          6.19455       12.99911       66.63083
C          6.60488       11.97563       65.58177
O          6.15410       12.03438       64.44626
C          5.17797       14.07202       66.15808
C          5.74026       15.15759       65.28820
O          7.03842       15.16944       64.96570
O          5.04092       16.11108       64.98673
H          4.64991       11.94600       67.68044
H          7.12574       13.52006       66.94481
H          4.81890       14.60602       67.06586
H          4.30103       13.58926       65.67620
N          7.47047       10.97561       65.93262
C          7.88856        9.90282       65.04108
C          8.83712       10.32001       63.93015
O          9.17787        9.46264       63.12748
H          7.80133       10.92797       66.90799
H          6.98259        9.42403       64.61008
H          8.42278        9.13061       65.63728
N          9.31536       11.59096       63.80653
C         10.18867       12.00510       62.70850
C         11.54706       11.31282       62.78445
O         12.18666       11.34479       63.82667
C         10.38193       13.52698       62.74167
C         10.99553       14.12158       61.49530
N         11.18257       15.45875       61.41841
O         11.30162       13.41597       60.54565
H          9.02208       12.30240       64.49167
H          9.66479       11.77455       61.75376
H         11.02139       13.76113       63.61046
H          9.38514       14.00831       62.85776
H         10.91840       16.07018       62.20408
H         11.58210       15.88530       60.56970
N         12.05271       10.69120       61.68739
C         13.31035        9.96182       61.64836
C         14.55346       10.78785       61.93371
O         14.71177       11.86046       61.36749
H         11.50041       10.71315       60.81661
H         13.43165        9.57405       60.61374
H         13.25773        9.08215       62.32334
N         15.56019       10.24089       62.68176
C         16.90194       10.82418       62.77940
C         16.96808       12.08769       63.63074
O         17.91502       12.84441       63.47218
C         17.95157        9.77682       63.25514
C         17.72801        9.26764       64.69115
O         18.01422        8.69943       62.34996
H         15.40128        9.29822       63.06372
H         17.20604       11.10575       61.74529
H         18.95350       10.25923       63.24390
H         17.25266        8.08853       62.52891
H         16.74396        8.76882       64.80568
H         18.51987        8.53602       64.95773
H         17.78274       10.10568       65.40726
N         16.04130       12.34400       64.59560
C         16.02320       13.55393       65.41838
C         14.63592       14.15313       65.35106
O         13.67254       13.42501       65.54243
C         16.48968       13.34055       66.89198
C         15.66229       12.37753       67.78748
C         17.99403       13.02125       66.95013
C         15.80130       10.87741       67.51221
H         15.29383       11.65484       64.73532
H         16.73610       14.30563       65.01076
H         16.38318       14.34225       67.36943
H         14.59116       12.66278       67.76211
H         16.00802       12.52915       68.83381
H         18.22590       12.05616       66.46427
H         18.57601       13.81213       66.42903
H         18.34168       12.98822       68.00446
H         15.41775       10.58129       66.52532
H         16.85697       10.55369       67.61255
H         15.20684       10.31934       68.26477
N         14.45577       15.46627       65.02699
C         13.13148       16.02188       64.77516
C         13.24049       17.42850       64.20691
O         12.58150       18.33344       64.69483
C         12.23752       16.01273       66.04876
C         10.81502       16.27091       65.65662
O         10.24658       15.45023       64.96427
O         10.12992       17.36838       66.01381
H         15.28855       16.05525       64.87528
H         12.68059       15.38674       63.98280
H         12.60795       16.76459       66.77820
H         12.23752       15.02895       66.55825
N         14.06323       17.68644       63.15707
C         14.20192       19.01747       62.57935
C         14.68458       20.01831       63.63422
O         15.72019       19.77206       64.23883
C         15.14959       18.95856       61.36058
C         15.19129       20.26664       60.60316
C         14.55755       20.37149       59.35217
C         15.85023       21.39260       61.13061
C         14.56743       21.58185       58.65403
C         15.86046       22.59948       60.42730
C         15.21652       22.69549       59.19187
H         14.60617       16.90538       62.75577
H         13.20899       19.30920       62.18067
H         14.74080       18.17145       60.68787
H         16.17715       18.64341       61.64522
H         14.04176       19.52164       58.92218
H         16.36041       21.34225       62.08247
H         14.06796       21.65642       57.69695
H         16.36728       23.46085       60.84227
H         15.22193       23.63216       58.65054
N         14.01144       21.18706       63.89235
C         14.48183       22.22705       64.79985
C         13.95659       22.05321       66.22413
O         14.11571       22.97402       67.01209
C         13.86907       23.48740       64.17365
C         12.49963       22.98623       63.75801
C         12.85018       21.63731       63.14047
H         15.58888       22.33907       64.80914
H         13.86705       24.38815       64.82486
H         14.43468       23.73241       63.24527
H         11.91018       22.81796       64.68551
H         11.91756       23.65849       63.09368
H         11.98378       20.94559       63.20447
H         13.15666       21.77646       62.08108
N         13.32262       20.91527       66.62664
C         12.69865       20.76044       67.93457
C         13.51290       19.85252       68.84164
O         13.09726       19.65485       69.97625
C         11.26506       20.20381       67.76941
C         10.39754       21.04870       66.82377
C          8.99306       20.51984       66.75970
O          8.23230       20.49105       67.87073
O          8.52671       20.13418       65.69949
H         13.27537       20.11881       65.98984
H         12.63234       21.74479       68.44735
H         10.78240       20.16277       68.77092
H         11.31962       19.16919       67.36872
H         10.83938       21.02715       65.80422
H         10.36077       22.10008       67.17755
N         14.69053       19.29084       68.43814
C         15.51018       18.45892       69.29539
H         16.50864       18.93063       69.41175
H         15.07100       18.32465       70.30620
H         15.63500       17.45981       68.82940
H         15.05095       19.45982       67.48830
Ca         8.13467       17.12848       65.01502
O          6.54428       17.57378       67.56599
H          6.28201       17.49679       68.51702
H          7.47099       17.92044       67.59334
O          9.83375       18.92665       62.89713
H         10.64697       18.36780       62.96209
H          9.85493       19.28164       61.97350
O          6.51324       19.18372       63.07837
H          6.05401       18.91754       62.24246
H          6.11087       20.05665       63.31579
O          7.62723       16.41388       61.90852
H          7.93186       16.78567       61.04286
H          6.68502       16.15357       61.74983

Ca 1.0



