%chk=apoCaM-CA-Ng.loop2.water5.frame1088.chk
%nprocshared=20
%mem=10GB
%nosave
#b3lyp/svp scf=(tight,noincore,xqc) Test 
#IOP(5/87=12) Density=Current Pop=(MK,readradii) iop(6/33=2) iop(6/42=6)

apoCaM-CA-Ng.loop2.water5.frame1088 

   -2  1 
C         47.95595       86.53206       54.97921
C         46.75450       86.20513       54.12494
O         46.91181       85.35439       53.26123
H         48.79745       86.80291       54.30511
H         47.83027       87.38204       55.66859
H         48.25725       85.63861       55.56528
N         45.52475       86.79681       54.23692
C         45.08296       87.72686       55.27694
C         44.81506       89.11483       54.68806
O         45.12197       89.33442       53.52374
C         43.87634       87.07977       56.01315
C         42.62579       86.98066       55.17084
O         42.17879       85.80012       54.69443
O         42.00291       87.99311       54.91445
H         44.81261       86.52130       53.54187
H         45.85610       87.86380       56.05237
H         43.63299       87.63991       56.94184
H         44.19594       86.06218       56.33064
N         44.26635       90.11068       55.45292
C         44.08303       91.50779       55.03486
C         43.19922       91.72915       53.80448
O         43.07656       92.87289       53.38711
C         45.45161       92.16840       54.82554
H         43.99631       89.88355       56.42070
H         43.60128       92.05574       55.87497
H         46.00024       91.71257       53.97655
H         45.32444       93.25415       54.62155
H         46.05937       92.06929       55.74963
N         42.55184       90.71218       53.17489
C         41.78303       90.86729       51.94553
C         40.31496       90.54052       52.16777
O         39.92272       90.19617       53.27426
C         42.43163       89.98486       50.84117
C         42.43759       88.49554       51.09889
O         42.97253       87.75037       50.29477
O         41.83705       87.96487       52.17724
H         42.61779       89.77467       53.56524
H         41.82423       91.91811       51.58607
H         43.48683       90.31072       50.72465
H         41.92345       90.15335       49.86885
N         39.45153       90.59457       51.11795
C         38.06587       90.16818       51.18017
C         37.90431       88.84602       50.45914
O         36.77854       88.46619       50.17172
H         39.81177       90.85675       50.18790
H         37.45279       90.95301       50.68442
H         37.69201       90.04938       52.21921
N         38.99541       88.07681       50.16105
C         38.95724       86.84062       49.40335
C         39.40966       85.64671       50.28626
O         38.77015       85.68408       51.53947
C         39.91274       87.00516       48.19032
C         39.52725       88.10397       47.22979
N         40.35659       88.41219       46.20656
O         38.47676       88.71466       47.35998
H         39.92395       88.37682       50.47013
H         37.92309       86.62979       49.05160
H         39.98160       86.08017       47.58761
H         40.92810       87.23199       48.58442
H         41.25565       87.92047       46.09618
H         40.10963       89.15074       45.53192
N         39.11006       84.39691       49.56249
C         39.22638       83.15809       50.34062
C         37.87073       82.67830       50.81655
O         36.89180       83.39078       50.64146
H         39.79141       84.32283       48.77602
H         39.94058       83.26956       51.18472
H         39.61723       82.37799       49.65955
N         37.70378       81.47480       51.44004
C         38.77924       80.51469       51.67507
C         39.22570       79.87315       50.36456
O         38.41083       79.26756       49.68310
C         38.32685       79.42752       52.67784
C         39.47020       78.46486       53.01715
O         37.91170       80.04530       53.87187
H         36.75609       81.24334       51.77934
H         39.62243       81.04674       52.16305
H         37.49371       78.83035       52.23274
H         36.92801       79.93344       53.94386
H         39.12341       77.71474       53.75802
H         39.81891       77.92411       52.11269
H         40.32633       79.02493       53.45263
N         40.52700       79.96392       49.97058
C         41.06532       79.37044       48.74254
C         40.98231       77.84791       48.85843
O         41.61138       77.32229       49.76690
C         42.55364       79.82516       48.56014
C         42.63866       81.37204       48.40892
C         43.22115       79.13358       47.35433
C         44.06531       81.91452       48.50572
H         41.16551       80.47973       50.59367
H         40.49308       79.74844       47.87120
H         43.10807       79.52411       49.47809
H         42.07977       81.87877       49.21965
H         42.17474       81.68366       47.44880
H         42.71442       79.42407       46.41059
H         44.29342       79.40089       47.27997
H         43.18981       78.02948       47.46042
H         44.71332       81.53335       47.69337
H         44.04153       83.02207       48.43053
H         44.50516       81.64097       49.48952
N         40.24440       77.03999       48.03468
C         39.35697       77.48270       46.95712
C         40.09319       77.72599       45.64443
O         41.27502       77.43089       45.54207
C         38.20871       76.45586       46.76897
C         38.67959       75.06434       46.42532
O         38.40369       74.04019       47.25661
O         39.30030       74.85247       45.39615
H         40.24791       76.03493       48.27039
H         38.86001       78.42512       47.26177
H         37.50680       76.79834       45.98000
H         37.63649       76.40425       47.72121
N         39.42091       78.27297       44.58662
C         40.01428       78.51817       43.27191
C         39.00253       79.23167       42.37157
O         37.92379       78.67932       42.19282
C         40.38924       77.18644       42.56914
C         41.07925       77.45637       41.24857
C         40.35505       77.45756       40.04147
C         42.45442       77.74199       41.22143
C         40.99766       77.74826       38.83311
C         43.09531       78.01736       40.00929
C         42.36702       78.02502       38.81685
H         38.43764       78.54636       44.73743
H         40.93469       79.12180       43.40273
H         39.46229       76.59335       42.40047
H         41.05025       76.54529       43.18805
H         39.29138       77.25503       40.03648
H         43.02921       77.74635       42.13885
H         40.43382       77.76331       37.90885
H         44.15642       78.22966       39.99503
H         42.86349       78.24755       37.88078
N         39.27088       80.39578       41.69672
C         40.53111       81.12912       41.70172
C         40.89128       81.78224       43.02326
O         40.18489       81.61490       44.00761
C         40.34157       82.18486       40.60466
C         39.41091       81.47128       39.64903
C         38.41144       80.88063       40.63443
H         41.33579       80.42783       41.38963
H         39.76576       83.04603       41.00798
H         41.28719       82.56349       40.16098
H         38.96157       82.11632       38.86548
H         39.97438       80.64218       39.16020
H         37.75381       81.68144       41.03993
H         37.80220       80.09008       40.14438
N         42.02989       82.52642       43.10224
C         42.55022       83.09087       44.34051
C         44.00922       83.52110       44.15345
O         44.33524       84.67534       44.38996
C         41.64434       84.22879       44.90358
C         41.42036       85.44749       43.98071
C         40.53540       85.14575       42.81056
O         39.27123       84.72740       43.01621
O         40.93849       85.31976       41.67190
H         42.58878       82.63744       42.24288
H         42.58550       82.28652       45.10661
H         42.12430       84.59509       45.83828
H         40.65320       83.82632       45.20117
H         42.38480       85.87093       43.63436
H         40.90427       86.23443       44.56381
N         44.98377       82.64498       43.76682
C         44.76452       81.23904       43.48697
H         45.73079       80.75449       43.23376
H         44.33416       80.72997       44.37397
H         44.10131       81.09962       42.61195
H         45.95069       82.99594       43.68394
Ca        40.44990       85.69316       53.16051
O         42.93385       84.43863       51.98551
H         43.92041       84.49832       52.03245
H         42.64984       85.32802       51.65749
O         40.42513       82.91975       53.85156
H         40.21152       82.27104       54.56711
H         41.23966       82.56016       53.41845
O         39.07461       87.78421       55.21877
H         39.51144       88.56009       55.65124
H         38.12349       87.85882       55.48161
O         39.90902       84.70982       56.35643
H         40.26777       85.11393       57.18586
H         39.26033       84.03019       56.66877
O         37.64079       85.26845       54.29927
H         36.99556       85.48797       53.58135
H         37.55960       84.28926       54.41862

Ca 1.0



