%chk=apoCaM-CA-Ng.loop2.water4.frame1122.chk
%nprocshared=20
%mem=10GB
%nosave
#b3lyp/svp scf=(tight,noincore,xqc) Test 
#IOP(5/87=12) Density=Current Pop=(MK,readradii) iop(6/33=2) iop(6/42=6)

apoCaM-CA-Ng.loop2.water4.frame1122 

   -2  1 
C         87.02003       70.46897       40.91759
C         87.91916       70.53775       42.11907
O         87.90571       69.60354       42.90744
H         86.30276       71.31455       40.92810
H         87.63308       70.50203       39.99198
H         86.44455       69.51818       40.91667
N         88.76866       71.57978       42.34533
C         88.91811       72.75238       41.48874
C         88.68117       74.01747       42.32667
O         87.66898       74.06975       43.01089
C         90.29075       72.63259       40.76332
C         91.43243       72.44630       41.73250
O         91.84299       73.38396       42.39408
O         91.81149       71.20295       42.08184
H         89.38482       71.51729       43.16654
H         88.14140       72.75916       40.69770
H         90.48558       73.46952       40.06016
H         90.23687       71.70876       40.14683
N         89.55009       75.07202       42.32231
C         89.42785       76.28410       43.12738
C         89.51042       76.01781       44.63156
O         88.85039       76.70844       45.39631
C         88.19734       77.11009       42.71846
H         90.36499       75.04822       41.69933
H         90.31609       76.91180       42.88983
H         87.25386       76.57384       42.94759
H         88.18887       78.08339       43.25451
H         88.23201       77.32122       41.62806
N         90.34142       75.05293       45.12796
C         90.58030       74.82950       46.55789
C         92.07998       74.76194       46.84583
O         92.88125       74.80822       45.92238
C         89.86915       73.53928       47.03032
C         90.31201       72.33914       46.24745
O         91.60617       71.96943       46.23312
O         89.50698       71.73863       45.55767
H         90.83018       74.44005       44.46121
H         90.15703       75.66904       47.15216
H         88.77348       73.67863       46.89231
H         90.04936       73.36480       48.11171
N         92.52735       74.64794       48.12837
C         93.93562       74.54253       48.48571
C         94.54287       73.19115       48.15167
O         93.87240       72.32581       47.61077
H         91.84097       74.67573       48.89703
H         94.02320       74.65416       49.58760
H         94.51028       75.36796       48.01184
N         95.83545       72.93739       48.50096
C         96.49504       71.64753       48.29665
C         95.82863       70.55785       49.11535
O         95.62530       70.76046       50.30562
C         97.97375       71.70144       48.74215
C         98.78521       72.70789       47.96843
N         99.44356       73.70090       48.61113
O         98.86625       72.61442       46.75268
H         96.36978       73.69929       48.94709
H         96.48318       71.38283       47.21888
H         98.43350       70.70139       48.57696
H         98.02855       71.92388       49.83095
H         99.39937       73.78801       49.63717
H        100.01017       74.38056       48.08309
N         95.54764       69.33677       48.56798
C         95.03822       68.22168       49.36085
C         96.00771       67.82943       50.47071
O         97.08582       68.40314       50.54642
H         95.73627       69.17598       47.56671
H         94.87078       67.34151       48.70293
H         94.06634       68.52263       49.80796
N         95.70943       66.89971       51.42307
C         94.49272       66.09986       51.48153
C         93.57032       66.61031       52.56467
O         94.01037       66.90092       53.66848
C         94.80948       64.60803       51.74685
C         95.48762       63.94754       50.55050
O         95.62624       64.45571       52.88146
H         96.38898       66.77923       52.19105
H         93.93544       66.14808       50.52208
H         93.85128       64.05247       51.89223
H         95.03731       64.50505       53.67854
H         94.82548       64.01094       49.65986
H         96.45726       64.43542       50.32331
H         95.66346       62.87320       50.77385
N         92.23717       66.68004       52.29980
C         91.21774       67.10696       53.25263
C         90.25273       65.95240       53.52545
O         90.28508       64.99116       52.76833
C         90.47861       68.36595       52.69674
C         89.99158       68.15262       51.23211
C         91.40795       69.58493       52.81347
C         89.12589       69.27835       50.67380
H         91.92094       66.36432       51.37151
H         91.70714       67.35997       54.19801
H         89.59747       68.57417       53.32785
H         89.39250       67.21809       51.17729
H         90.86334       68.05602       50.55069
H         91.71440       69.72000       53.87377
H         92.32008       69.45077       52.19444
H         90.89165       70.51612       52.50950
H         88.84446       69.03206       49.62806
H         88.19642       69.37796       51.26205
H         89.67010       70.24315       50.65749
N         89.34717       65.91893       54.55591
C         89.20936       66.86834       55.67428
C         87.89440       66.64769       56.44215
O         87.13454       65.74638       56.10900
C         90.42614       66.77555       56.64220
C         90.76504       65.36183       57.02678
O         89.87083       64.59459       57.67650
O         91.86345       64.90422       56.75010
H         88.72656       65.09446       54.55549
H         89.13458       67.89855       55.29739
H         90.25517       67.37257       57.55934
H         91.32202       67.22746       56.19306
N         87.56636       67.45010       57.50067
C         86.36910       67.25975       58.31455
C         85.69864       68.60226       58.62528
O         86.39445       69.47938       59.12473
C         86.78431       66.58622       59.63870
C         85.57424       66.17862       60.44396
C         85.29132       66.78831       61.67627
C         84.70957       65.18132       59.95603
C         84.15205       66.41734       62.39835
C         83.57375       64.81396       60.68013
C         83.29309       65.43347       61.89950
H         88.23295       68.17857       57.79722
H         85.67349       66.56810       57.79986
H         87.43674       67.28338       60.21033
H         87.37996       65.66997       59.43254
H         85.94271       67.55756       62.07121
H         84.91086       64.69278       59.01034
H         83.93232       66.89572       63.34344
H         82.91034       64.05135       60.29263
H         82.41027       65.15020       62.45729
N         84.36251       68.84841       58.43923
C         83.38668       67.89560       57.93663
C         83.43869       67.75532       56.42889
O         82.74805       66.88552       55.91541
C         82.05341       68.48048       58.41356
C         82.30685       69.96947       58.28943
C         83.72574       70.08800       58.84170
H         83.50782       66.90009       58.40025
H         81.14950       68.09512       57.89448
H         81.94845       68.26418       59.50215
H         82.32854       70.21253       57.20288
H         81.56440       70.63048       58.78484
H         84.21957       70.99030       58.41971
H         83.73091       70.13346       59.95369
N         84.21628       68.56449       55.65219
C         84.32927       68.39813       54.21277
C         82.95598       68.56766       53.56299
O         82.45601       69.68391       53.59373
C         85.32099       69.40093       53.54836
C         86.76974       69.35929       54.07792
C         87.06503       70.21166       55.29157
O         88.18858       70.20190       55.76690
O         86.15890       71.07575       55.78907
H         84.74850       69.30398       56.10772
H         84.75804       67.39650       54.04699
H         84.95168       70.44945       53.56373
H         85.36656       69.08880       52.48061
H         87.43077       69.77971       53.29742
H         87.05823       68.29990       54.23476
N         82.24444       67.56246       52.96619
C         82.60021       66.15656       52.89967
H         83.53854       65.89000       53.40821
H         81.79651       65.56436       53.38742
H         82.67545       65.84194       51.83920
H         81.33699       67.80971       52.54126
Ca        92.36287       71.21807       44.25739
O         94.77819       71.92397       41.91744
H         95.76747       71.93276       41.88698
H         94.49987       72.09275       40.98252
O         93.84872       68.66623       44.38890
H         93.00469       68.62135       44.90499
H         94.53613       68.89833       45.06217
O         96.12913       71.10911       44.62593
H         96.80091       70.45602       44.94624
H         96.66497       71.87943       44.31119
O         95.11090       74.18678       44.04614
H         95.51603       74.68291       44.80131
H         95.37291       74.70012       43.24113

Ca 1.0



