%chk=apoCaM-CA-Ng.loop2.water2.frame933.chk
%nprocshared=20
%mem=10GB
%nosave
#b3lyp/svp scf=(tight,noincore,xqc) Test 
#IOP(5/87=12) Density=Current Pop=(MK,readradii) iop(6/33=2) iop(6/42=6)

apoCaM-CA-Ng.loop2.water2.frame933 

   -2  1 
C         -2.96833       -6.64218       67.38697
C         -2.26174       -7.96403       67.34089
O         -2.17794       -8.56494       66.27955
H         -3.82705       -6.70318       68.08765
H         -2.26549       -5.85841       67.74186
H         -3.34228       -6.35676       66.38103
N         -1.70607       -8.46632       68.47637
C         -0.97472       -9.72580       68.54158
C          0.50328       -9.46194       68.86420
O          1.24960      -10.41083       69.05535
C         -1.67416      -10.61464       69.59873
C         -1.24521      -12.06132       69.62438
O         -0.42897      -12.50248       68.83104
O         -1.81476      -12.89641       70.51402
H         -1.78798       -7.91431       69.34583
H         -1.02289      -10.25401       67.56396
H         -2.76495      -10.62630       69.38100
H         -1.52951      -10.16557       70.60549
N          1.00197       -8.18752       68.90068
C          2.38442       -7.84017       69.20248
C          2.38009       -6.88198       70.39180
O          1.70340       -5.86692       70.29694
C          3.01004       -7.17335       67.97418
H          0.38278       -7.39333       68.68798
H          2.98165       -8.74899       69.40052
H          2.44487       -6.26295       67.68324
H          4.06317       -6.88911       68.17675
H          3.00082       -7.88453       67.11982
N          3.04702       -7.10292       71.56476
C          3.97391       -8.20449       71.80798
C          4.13290       -8.51030       73.29436
O          3.59122       -7.80354       74.13283
C          5.31787       -7.92541       71.09024
C          5.98854       -6.64875       71.52614
O          7.25900       -6.68314       71.96482
O          5.41749       -5.57373       71.42095
H          2.90373       -6.40919       72.31484
H          3.52283       -9.13938       71.41888
H          5.13740       -7.83948       70.00232
H          6.01813       -8.77309       71.24135
N          4.77972       -9.64871       73.67584
C          4.80074      -10.14178       75.04471
C          6.19339      -10.52353       75.47508
O          6.44309      -11.71260       75.61499
H          5.18322      -10.25714       72.94661
H          4.18277      -11.06652       75.05207
H          4.34685       -9.43779       75.77294
N          7.18165       -9.62019       75.71093
C          7.02915       -8.17329       75.66137
C          6.49026       -7.63471       76.97935
O          6.98316       -8.02718       78.02808
C          8.39471       -7.54906       75.35032
C          8.32165       -6.02523       75.27046
N          9.61540       -5.49304       74.85193
O          7.32132       -5.63928       74.36552
H          8.10994       -9.99692       75.96547
H          6.37424       -7.88558       74.81462
H          8.74851       -7.94460       74.37183
H          9.13396       -7.83027       76.13264
H         10.37571       -5.92453       75.42353
H          9.63674       -4.48325       75.09966
N          5.51894       -6.67388       76.98722
C          4.93498       -6.11574       78.20032
C          5.22843       -4.63621       78.41902
O          4.69736       -4.09963       79.38104
H          5.16829       -6.31822       76.08757
H          5.29395       -6.65386       79.10418
H          3.83555       -6.26212       78.14243
N          6.09431       -3.92376       77.63602
C          6.47649       -2.53038       77.90804
C          6.24392       -1.64481       76.67868
O          5.71906       -2.13377       75.68848
C          7.96406       -2.49780       78.35320
C          8.21192       -3.32628       79.61608
O          8.78819       -2.98181       77.32753
H          6.56802       -4.40019       76.85530
H          5.88107       -2.10325       78.74479
H          8.23467       -1.44747       78.60921
H          9.58949       -2.39576       77.29802
H          7.98744       -4.39898       79.43744
H          9.27955       -3.24013       79.91190
H          7.58328       -2.95416       80.45214
N          6.65552       -0.33715       76.65761
C          6.58609        0.51800       75.47015
C          8.00452        0.71609       74.96677
O          8.82896        1.22548       75.71571
C          5.93183        1.89847       75.78028
C          5.85949        2.75154       74.47902
C          4.53872        1.71726       76.40639
C          5.39212        4.19113       74.69516
H          7.11642        0.05570       77.49128
H          5.98680        0.02463       74.67510
H          6.57018        2.42921       76.52284
H          5.19352        2.25513       73.73926
H          6.87095        2.82847       74.02624
H          3.85625        1.19674       75.70233
H          4.60885        1.12718       77.34405
H          4.09736        2.69594       76.68396
H          5.41531        4.72986       73.72341
H          4.35418        4.23424       75.07883
H          6.07371        4.71251       75.40057
N          8.36528        0.31180       73.71285
C          9.73591        0.39005       73.21409
C          9.87404        1.25422       71.98221
O         11.00452        1.44262       71.55498
C         10.26370       -1.02480       72.91941
C         10.29874       -1.80623       74.19076
O         11.35899       -2.19674       74.65067
O          9.16449       -2.02781       74.86763
H          7.65291       -0.11819       73.10482
H         10.40024        0.85054       73.97977
H         11.29718       -0.96564       72.51312
H          9.62011       -1.53645       72.17014
N          8.80434        1.81669       71.34633
C          8.98592        2.69860       70.20169
C          7.63457        3.01224       69.55455
O          6.77137        3.53029       70.24896
C          9.64939        4.01725       70.67021
C          9.93132        4.96469       69.53258
C          9.06411        6.04051       69.28561
C         11.06845        4.79624       68.72292
C          9.32374        6.93050       68.24132
C         11.33388        5.70031       67.68798
C         10.46016        6.76446       67.44597
H          7.84876        1.61343       71.66956
H          9.65368        2.18273       69.48782
H         10.60173        3.84897       71.21616
H          8.96657        4.49966       71.40318
H          8.18105        6.18236       69.89572
H         11.75698        3.97968       68.90400
H          8.64456        7.75132       68.05282
H         12.21793        5.57933       67.07486
H         10.66372        7.46216       66.64408
N          7.37687        2.77482       68.22667
C          6.14859        3.19321       67.55560
C          4.85956        2.51684       67.99654
O          3.82395        2.86712       67.44507
C          6.39321        2.81234       66.08803
C          7.89093        2.94168       65.96577
C          8.35419        2.30171       67.26559
H          6.07317        4.29792       67.67329
H          6.16834        1.72846       65.94517
H          5.79675        3.39507       65.35408
H          8.32912        2.48837       65.05145
H          8.14534        4.02570       65.99632
H          8.29094        1.19108       67.21636
H          9.39342        2.64323       67.44244
N          4.83251        1.49248       68.89957
C          3.61505        0.71971       69.14832
C          2.47476        1.51537       69.77357
O          1.38355        0.96833       69.85949
C          3.91573       -0.53957       69.98925
C          4.31558       -0.23342       71.44175
C          4.59721       -1.51211       72.17197
O          5.69914       -1.71658       72.65029
O          3.63500       -2.44552       72.29557
H          5.71488        1.17793       69.32628
H          3.26490        0.35837       68.15462
H          4.72994       -1.11241       69.49144
H          3.00894       -1.18479       69.99870
H          3.48844        0.29292       71.96484
H          5.21493        0.41854       71.46589
N          2.63953        2.78540       70.24439
C          1.56367        3.55454       70.83881
H          0.59999        3.00232       70.85366
H          1.83150        3.81449       71.88386
H          1.41720        4.48923       70.25872
H          3.56219        3.23870       70.20020
Ca         7.65474       -3.43894       74.04870
O          7.82870       -3.28040       70.74246
H          8.28565       -4.06726       70.35189
H          6.95096       -3.25001       70.28514
O          4.16405       -4.39768       74.54313
H          4.28415       -5.26776       74.08840
H          3.22237       -4.15256       74.36266

Ca 1.0



