%chk=apoCaM-CA-Ng.loop2.water4.frame1360.chk
%nprocshared=20
%mem=10GB
%nosave
#b3lyp/svp scf=(tight,noincore,xqc) Test 
#IOP(5/87=12) Density=Current Pop=(MK,readradii) iop(6/33=2) iop(6/42=6)

apoCaM-CA-Ng.loop2.water4.frame1360 

   -2  1 
C         94.87544       51.59653       93.90075
C         94.59711       52.74737       92.95947
O         95.57160       53.29539       92.46536
H         95.47748       51.96061       94.75825
H         94.00156       51.06569       94.30778
H         95.46756       50.83213       93.35388
N         93.35220       53.18897       92.59873
C         92.07502       52.67620       93.09433
C         91.15704       53.75592       93.66944
O         90.13358       53.37354       94.22090
C         91.36765       51.83832       92.00176
C         91.04723       52.55226       90.71520
O         91.38803       53.83580       90.51866
O         90.47890       51.94570       89.82208
H         93.32902       53.93288       91.88706
H         92.23475       51.98993       93.93787
H         90.42013       51.43307       92.41842
H         92.02201       50.97638       91.74805
N         91.41627       55.09821       93.58494
C         90.52802       56.10901       94.16342
C         89.67929       56.80945       93.10894
O         88.83387       57.60994       93.48394
C         91.35151       57.11332       94.97581
H         92.24263       55.43223       93.06969
H         89.80360       55.62873       94.85650
H         90.68879       57.86335       95.45813
H         91.91857       56.58522       95.77172
H         92.07194       57.64589       94.31770
N         89.81296       56.53024       91.78187
C         88.95580       57.07080       90.73151
C         88.25162       55.94964       89.98656
O         88.47819       54.78574       90.29073
C         89.78340       57.97099       89.78205
C         91.16815       57.47579       89.40971
O         92.12519       58.17084       89.71223
O         91.41767       56.31833       88.76072
H         90.54785       55.88110       91.48228
H         88.14133       57.69756       91.15723
H         89.93493       58.93238       90.32167
H         89.20484       58.21505       88.86744
N         87.36010       56.24319       88.99142
C         86.71597       55.23114       88.17008
C         87.12408       55.42665       86.72976
O         88.31197       55.50415       86.46348
H         87.14847       57.22966       88.77969
H         85.61197       55.28902       88.28670
H         87.03083       54.21094       88.47677
N         86.20844       55.46938       85.72513
C         86.62524       55.59546       84.33066
C         87.10793       57.00365       84.04843
O         86.33078       57.93634       84.20214
C         85.48336       55.22157       83.37138
C         85.08911       53.77463       83.55040
N         83.82644       53.43567       83.89530
O         85.92344       52.89727       83.37926
H         85.21035       55.33806       85.95226
H         87.44816       54.87095       84.13331
H         85.83192       55.35175       82.32339
H         84.61363       55.89460       83.53475
H         83.10595       54.15682       84.04121
H         83.56885       52.44482       84.01601
N         88.38688       57.22645       83.62606
C         88.91133       58.54996       83.32123
C         90.04552       58.91614       84.25585
O         90.38454       58.12195       85.12132
H         89.02479       56.42425       83.51366
H         88.11737       59.31759       83.42727
H         89.26788       58.56357       82.26964
N         90.67521       60.12523       84.19567
C         90.35358       61.17156       83.22546
C         90.96702       60.85959       81.84463
O         90.59834       61.49495       80.86859
C         90.82891       62.54119       83.79126
C         90.33250       63.74548       82.99060
O         90.34320       62.69026       85.10575
H         91.39017       60.31944       84.91547
H         89.24717       61.23439       83.15007
H         91.94634       62.56166       83.79007
H         91.11105       62.58649       85.72809
H         90.69229       64.67954       83.47464
H         90.71000       63.73292       81.95093
H         89.22095       63.76561       82.98463
N         91.95919       59.92665       81.71751
C         92.68800       59.58484       80.48984
C         92.64644       58.06453       80.31103
O         92.90289       57.38386       81.29528
C         94.16127       60.07419       80.66495
C         94.25424       61.62637       80.73300
C         95.12057       59.52432       79.59050
C         93.87789       62.36119       79.43583
H         92.29112       59.45696       82.57167
H         92.28343       60.08847       79.60091
H         94.53402       59.67858       81.63685
H         95.29952       61.90763       80.98470
H         93.60661       62.00449       81.55239
H         96.15272       59.88471       79.78603
H         95.15306       58.41535       79.62274
H         94.82167       59.83310       78.57077
H         94.54795       62.07125       78.60067
H         92.82686       62.17285       79.14051
H         93.99146       63.45488       79.58607
N         92.43615       57.40917       79.12289
C         92.22827       58.00681       77.79556
C         92.45198       56.97404       76.66654
O         92.70439       55.81011       76.95044
C         90.80469       58.62245       77.68187
C         89.67610       57.63043       77.82203
O         88.52397       58.02116       77.72486
O         89.90881       56.32376       78.05370
H         92.51365       56.38263       79.18166
H         92.98852       58.79800       77.63676
H         90.70192       59.12264       76.69620
H         90.64648       59.40247       78.44750
N         92.33024       57.33172       75.35137
C         92.35037       56.36663       74.24804
C         93.31597       56.78412       73.14517
O         93.24445       57.93983       72.74635
C         90.91862       56.26656       73.68676
C         90.79361       55.13727       72.69196
C         91.18945       55.29882       71.35198
C         90.30042       53.89176       73.11608
C         91.09396       54.22855       70.45650
C         90.21443       52.82396       72.22052
C         90.61020       52.99155       70.89161
H         92.11093       58.31331       75.12360
H         92.58788       55.35248       74.61950
H         90.55437       57.22410       73.25292
H         90.25828       56.04232       74.55379
H         91.57121       56.24892       71.00028
H         90.00088       53.74175       74.14605
H         91.39969       54.35598       69.42621
H         89.84531       51.86517       72.56032
H         90.54326       52.16170       70.20050
N         94.17174       55.91332       72.50941
C         94.33720       54.48274       72.76434
C         94.82170       54.17378       74.15435
O         94.27449       53.29779       74.80848
C         95.43074       54.05576       71.76831
C         95.18330       54.99013       70.61392
C         94.94310       56.30794       71.34452
H         93.39049       53.95039       72.52790
H         96.44236       54.32019       72.15452
H         95.43247       52.97114       71.52508
H         95.99177       55.02253       69.85249
H         94.23483       54.67428       70.12274
H         95.89453       56.77095       71.68869
H         94.39674       56.99418       70.66194
N         95.86895       54.87494       74.65960
C         96.48279       54.59550       75.94409
C         97.34829       53.35016       75.78817
O         98.26862       53.39231       74.98287
C         97.36127       55.79835       76.35832
C         96.52321       57.08000       76.53984
C         97.40838       58.26967       76.77215
O         97.38375       59.21101       75.99433
O         98.23684       58.30506       77.83236
H         96.25325       55.64366       74.08827
H         95.69399       54.48147       76.71825
H         98.12453       55.97309       75.56640
H         97.89000       55.57352       77.31029
H         95.82694       56.95746       77.39708
H         95.91267       57.27864       75.63249
N         97.14526       52.19264       76.47708
C         96.08225       51.99166       77.43410
H         95.09605       52.11019       76.94172
H         96.14017       50.95940       77.84154
H         96.18119       52.71015       78.27318
H         97.78271       51.39999       76.30001
Ca        90.18180       54.55980       88.08167
O         92.06872       51.73827       87.15603
H         91.97230       51.26439       86.29210
H         92.22171       51.01766       87.81780
O         93.70077       54.63611       87.93094
H         93.95488       55.58905       88.02115
H         93.88638       54.41937       86.98298
O         91.19938       54.81415       85.08692
H         91.14088       55.10372       84.14226
H         90.84533       55.58158       85.60119
O         88.71561       52.12357       86.83023
H         88.69276       52.16818       85.84136
H         87.82677       51.76928       87.08451

Ca 1.0



