%chk=apoCaM-CA-Ng.loop2.water4.frame801.chk
%nprocshared=20
%mem=10GB
%nosave
#b3lyp/svp scf=(tight,noincore,xqc) Test 
#IOP(5/87=12) Density=Current Pop=(MK,readradii) iop(6/33=2) iop(6/42=6)

apoCaM-CA-Ng.loop2.water4.frame801 

   -2  1 
C         18.09731       86.13084       87.67329
C         17.50450       86.86332       88.84102
O         17.93890       86.65576       89.96498
H         18.92542       85.46662       87.99950
H         17.31377       85.51832       87.18118
H         18.49939       86.86240       86.93934
N         16.52045       87.77778       88.62926
C         15.91832       88.58862       89.67869
C         16.43497       89.99500       89.48883
O         15.68724       90.89415       89.12198
C         14.38074       88.46427       89.60161
C         13.65247       89.23967       90.67320
O         12.43311       89.21202       90.70801
O         14.32063       89.96037       91.59639
H         16.22220       87.95610       87.65648
H         16.23517       88.24978       90.69039
H         14.10673       87.39274       89.71274
H         14.02957       88.81211       88.60528
N         17.75887       90.23009       89.70314
C         18.41553       91.49638       89.43109
C         19.51467       91.27407       88.40419
O         19.88183       90.12557       88.17544
C         18.99361       92.05868       90.73403
H         18.34368       89.45212       90.05055
H         17.67390       92.21022       89.01241
H         18.17307       92.22696       91.46307
H         19.71839       91.33991       91.17284
H         19.51922       93.02106       90.57571
N         20.06193       92.27450       87.66344
C         19.63321       93.67451       87.69310
C         18.70159       93.93736       86.52840
O         18.47700       93.04915       85.72254
C         20.85950       94.61918       87.70706
C         21.72696       94.50906       86.48062
O         22.77946       95.12242       86.41647
O         21.36621       93.70473       85.46872
H         20.73763       91.98436       86.94332
H         19.04448       93.88615       88.60152
H         21.47732       94.36135       88.59415
H         20.53355       95.67573       87.80760
N         18.07052       95.13702       86.41919
C         17.12790       95.43489       85.35498
C         15.73225       95.55937       85.91491
O         15.54421       95.34220       87.10377
H         18.22718       95.85497       87.14112
H         17.11101       94.63742       84.58635
H         17.44327       96.38154       84.86886
N         14.67253       95.92323       85.14214
C         14.75441       96.26648       83.72525
C         15.00526       95.02767       82.86684
O         14.18429       94.12005       82.91000
C         13.42919       96.94919       83.31755
C         13.46253       97.50372       81.91934
N         12.56142       97.10172       80.99448
O         14.29947       98.34421       81.62505
H         13.76233       96.02205       85.62239
H         15.56057       97.02005       83.59039
H         13.24238       97.80330       84.00591
H         12.58579       96.23293       83.43996
H         11.84047       96.40299       81.22626
H         12.57927       97.49844       80.04374
N         16.10090       94.91853       82.05018
C         16.28259       93.73321       81.20796
C         17.53437       93.63784       80.32500
O         17.62493       92.63993       79.62348
H         16.77374       95.69327       82.04231
H         15.40305       93.66237       80.52944
H         16.28634       92.83572       81.86373
N         18.52686       94.57675       80.27095
C         19.70069       94.44898       79.39120
C         20.55444       93.20762       79.68608
O         20.66644       92.78972       80.82960
C         20.57549       95.73080       79.41812
C         19.89425       96.88687       78.67476
O         20.83596       96.10569       80.74421
H         18.44862       95.42333       80.84433
H         19.34199       94.33290       78.34409
H         21.53380       95.52009       78.88905
H         21.50529       96.83856       80.71510
H         20.54966       97.78416       78.69348
H         19.73696       96.60593       77.61117
H         18.91785       97.14502       79.13306
N         21.22406       92.60471       78.65300
C         22.03634       91.38625       78.74347
C         23.52296       91.74583       78.78404
O         23.97300       92.50309       77.93545
C         21.77292       90.47805       77.48914
C         22.66305       89.20289       77.52349
C         20.28461       90.10123       77.36914
C         22.63267       88.36834       76.24297
H         21.14149       93.03473       77.71861
H         21.77086       90.80478       79.65519
H         22.05144       91.06274       76.58320
H         22.38783       88.56808       78.39398
H         23.72035       89.50701       77.62398
H         19.96115       89.49449       78.24094
H         19.65082       91.00941       77.30566
H         20.09592       89.52403       76.44061
H         22.96399       88.98644       75.38084
H         23.33888       87.51670       76.34966
H         21.62828       87.95074       76.03996
N         24.35719       91.14641       79.69166
C         25.80697       91.35097       79.75687
C         26.60496       90.07907       79.45382
O         27.82444       90.17575       79.43164
C         26.22699       91.75205       81.18470
C         25.27641       92.69057       81.83177
O         24.54020       92.18630       82.83494
O         25.11233       93.82771       81.42511
H         23.94720       90.50023       80.36526
H         26.09450       92.14851       79.03750
H         27.26915       92.13680       81.21602
H         26.19619       90.82920       81.81119
N         26.01815       88.85531       79.26042
C         26.78619       87.62966       79.06311
C         26.25955       86.49917       79.96918
O         25.60382       85.60332       79.45475
C         26.73470       87.21124       77.57521
C         27.69294       86.05963       77.34507
C         29.08034       86.26226       77.48060
C         27.21792       84.77508       77.03271
C         29.97108       85.19930       77.31794
C         28.11384       83.71123       76.88017
C         29.48819       83.92300       77.02348
H         24.99535       88.77062       79.24702
H         27.85797       87.80689       79.27540
H         27.03798       88.05538       76.91821
H         25.68967       86.94048       77.30773
H         29.47412       87.24346       77.71640
H         26.15583       84.59110       76.93239
H         31.03532       85.36520       77.42790
H         27.74226       82.71974       76.65819
H         30.17964       83.09852       76.90851
N         26.52348       86.42282       81.31227
C         26.12765       85.28942       82.15175
C         24.63865       84.97855       82.26630
O         24.31730       83.99803       82.92587
C         26.68450       85.65217       83.52984
C         27.94206       86.40169       83.15804
C         27.44571       87.28985       82.01589
H         26.64598       84.39182       81.74298
H         26.00523       86.38702       84.02098
H         26.82594       84.78361       84.20914
H         28.43758       86.94457       83.98947
H         28.65989       85.65353       82.74468
H         26.89204       88.17801       82.38752
H         28.33153       87.58921       81.41827
N         23.67266       85.73674       81.67152
C         22.25812       85.37827       81.71505
C         22.09299       84.07305       80.96497
O         21.63079       83.10269       81.54774
C         21.30566       86.43775       81.08420
C         21.05094       87.72201       81.91091
C         22.13733       88.75487       81.91448
O         21.95283       89.91242       82.57326
O         23.16063       88.59439       81.28636
H         23.96329       86.54999       81.13413
H         21.93437       85.24464       82.77268
H         20.30589       85.94846       81.04472
H         21.58660       86.68652       80.03802
H         20.80157       87.44353       82.95692
H         20.16389       88.22977       81.47289
N         22.48578       83.98489       79.66209
C         22.40060       82.77163       78.87790
H         21.77547       82.95870       77.98049
H         23.42079       82.47912       78.55108
H         21.95932       81.92852       79.44891
H         22.88624       84.81568       79.20095
Ca        22.82363       93.02667       83.95007
O         19.86616       94.57319       83.09000
H         19.19313       93.90521       83.37195
H         19.84503       95.26904       83.79356
O         19.99193       90.79863       84.42789
H         19.08529       91.07780       84.14650
H         19.93790       89.81190       84.48727
O         23.66974       90.30524       85.14715
H         23.02303       89.72127       85.61699
H         24.04319       89.73630       84.42769
O         22.81002       95.32339       82.43526
H         23.56557       95.94849       82.30948
H         22.79214       94.77717       81.60831

Ca 1.0



