%chk=apoCaM-CA-Ng.loop2.water4.frame397.chk
%nprocshared=20
%mem=10GB
%nosave
#b3lyp/svp scf=(tight,noincore,xqc) Test 
#IOP(5/87=12) Density=Current Pop=(MK,readradii) iop(6/33=2) iop(6/42=6)

apoCaM-CA-Ng.loop2.water4.frame397 

   -2  1 
C         -5.09511       70.66790       24.62812
C         -6.41092       70.36735       23.97467
O         -7.32577       71.17200       24.08143
H         -4.29776       70.71030       23.85816
H         -5.13356       71.64061       25.16435
H         -4.85263       69.86996       25.36187
N         -6.58229       69.19367       23.30255
C         -7.84611       68.79439       22.69466
C         -8.44398       67.66942       23.51597
O         -7.80933       66.64492       23.72074
C         -7.70532       68.48392       21.18889
C         -6.77946       67.36389       20.78428
O         -6.66133       67.09777       19.59912
O         -6.07598       66.65357       21.68485
H         -5.79273       68.53199       23.27871
H         -8.56178       69.64509       22.73286
H         -7.35480       69.41044       20.68353
H         -8.71937       68.24806       20.79657
N         -9.65842       67.85742       24.09493
C        -10.24593       66.97376       25.08859
C        -10.40703       67.77305       26.37251
O         -9.99390       68.92638       26.40497
C        -11.59679       66.47023       24.56587
H        -10.18116       68.72167       23.87967
H         -9.60053       66.09146       25.29332
H        -12.28662       67.31990       24.37421
H        -11.44654       65.91037       23.61811
H        -12.07447       65.77940       25.29125
N        -11.04489       67.25700       27.45868
C        -11.33245       68.06643       28.63709
C        -12.81619       68.36396       28.62856
O        -13.52387       68.03923       29.57273
C        -10.85464       67.34913       29.91388
C         -9.37433       67.08859       29.88209
O         -8.95150       65.94566       29.95168
O         -8.50695       68.11428       29.78712
H        -11.42311       66.29866       27.41847
H        -10.82138       69.05350       28.58913
H        -11.39918       66.38466       30.02165
H        -11.08042       67.98065       30.80017
N        -13.36129       68.96175       27.52808
C        -14.78403       69.19061       27.37831
C        -15.33480       70.26871       28.28118
O        -16.54903       70.41059       28.30218
H        -12.75480       69.19649       26.72778
H        -15.31208       68.23060       27.56169
H        -15.00229       69.50050       26.33253
N        -14.53033       71.11021       28.99760
C        -15.06294       72.18421       29.83215
C        -14.88052       73.54127       29.17303
O        -15.76797       74.37078       29.31973
C        -14.53061       72.13242       31.27784
C        -13.05766       72.43945       31.41075
N        -12.64415       73.51068       32.12772
O        -12.22969       71.71132       30.88540
H        -13.50994       71.02416       28.90289
H        -16.16336       72.05295       29.93612
H        -14.73441       71.12771       31.70871
H        -15.11025       72.87017       31.87555
H        -13.32274       74.13591       32.58713
H        -11.63941       73.71727       32.22544
N        -13.79640       73.82858       28.39185
C        -13.67848       75.06084       27.62597
C        -12.55745       75.94284       28.11520
O        -11.90948       75.63000       29.10452
H        -13.03770       73.13989       28.29046
H        -14.60826       75.66726       27.68937
H        -13.52723       74.80225       26.55589
N        -12.32938       77.12376       27.47359
C        -11.41375       78.15065       27.97313
C         -9.94732       77.73174       28.02681
O         -9.17511       78.48111       28.61397
C        -11.56745       79.47991       27.17983
C        -11.14455       79.37730       25.70263
O        -12.87975       79.97707       27.29686
H        -12.91394       77.32955       26.65074
H        -11.72479       78.36457       29.01889
H        -10.90058       80.23838       27.64485
H        -13.46009       79.50618       26.64436
H        -10.08029       79.08936       25.63008
H        -11.75624       78.63445       25.14946
H        -11.26169       80.36453       25.20892
N         -9.47655       76.58283       27.46385
C         -8.08213       76.15611       27.55865
C         -8.03160       74.85517       28.32611
O         -8.75461       73.92691       27.97930
C         -7.42881       76.00042       26.15170
C         -7.48711       77.30062       25.30990
C         -5.96753       75.51322       26.26446
C         -6.77124       78.51405       25.91913
H        -10.12698       75.96553       26.95309
H         -7.47095       76.89967       28.11434
H         -7.99134       75.22600       25.58372
H         -8.54692       77.56228       25.13530
H         -7.03575       77.10037       24.31352
H         -5.91866       74.51817       26.74681
H         -5.51280       75.40917       25.25670
H         -5.35120       76.21293       26.86705
H         -5.68917       78.31739       26.06129
H         -6.86988       79.38020       25.23202
H         -7.21932       78.80397       26.88914
N         -7.13646       74.69372       29.33989
C         -6.96125       73.43844       30.05315
C         -6.81516       73.65622       31.57174
O         -6.56959       72.69911       32.28707
C         -5.75534       72.72682       29.40654
C         -5.66432       71.25467       29.69007
O         -6.57072       70.62664       30.46402
O         -4.78082       70.60535       29.15565
H         -6.45450       75.45113       29.51305
H         -7.84437       72.78405       29.87803
H         -4.81379       73.24910       29.67184
H         -5.87503       72.78456       28.30352
N         -7.00179       74.89132       32.13642
C         -6.92301       75.15928       33.57381
C         -5.49261       75.03417       34.09310
O         -4.61904       75.69310       33.54830
C         -7.44376       76.58588       33.86836
C         -8.91351       76.70210       33.53221
C         -9.86261       75.96871       34.26806
C         -9.35157       77.53281       32.48659
C        -11.22182       76.06119       33.96017
C        -10.71356       77.61616       32.17748
C        -11.64739       76.88106       32.91285
H         -7.27150       75.67735       31.53278
H         -7.59531       74.45389       34.09690
H         -6.84122       77.31581       33.28278
H         -7.31837       76.83371       34.94561
H         -9.55101       75.32787       35.08369
H         -8.64144       78.10565       31.90372
H        -11.94446       75.49374       34.53263
H        -11.04558       78.25022       31.36714
H        -12.70066       76.94640       32.67252
N         -5.17465       74.24107       35.16929
C         -3.83285       74.07462       35.72330
C         -2.79330       73.70870       34.68867
O         -1.72022       74.29479       34.67071
C         -4.00025       72.89906       36.69949
C         -5.39589       73.12588       37.21647
C         -6.14493       73.48298       35.93654
H         -3.54476       75.00100       36.26967
H         -4.03446       71.93372       36.14297
H         -3.20526       72.82651       37.47195
H         -5.83965       72.28621       37.79210
H         -5.35912       74.02863       37.86876
H         -6.44012       72.58687       35.34721
H         -7.03685       74.07830       36.22930
N         -3.07551       72.73767       33.78163
C         -2.15617       72.26162       32.75554
C         -1.66585       73.41798       31.90494
O         -0.46023       73.60001       31.80595
C         -2.86973       71.20609       31.88444
C         -3.23125       69.93631       32.68384
C         -4.13431       69.03953       31.89017
O         -5.25185       68.78088       32.30918
O         -3.74374       68.53971       30.70428
H         -4.02414       72.33594       33.81605
H         -1.27337       71.78007       33.23346
H         -2.22914       70.91062       31.02441
H         -3.79245       71.67572       31.49000
H         -3.76793       70.19593       33.61917
H         -2.30464       69.39400       32.96634
N         -2.54384       74.26074       31.29302
C         -2.13045       75.39909       30.49576
H         -1.02563       75.48616       30.41808
H         -2.54574       75.30326       29.47144
H         -2.51879       76.33101       30.95772
H         -3.55477       74.10864       31.41640
Ca        -5.29140       67.42410       29.49056
O         -5.69537       65.48897       31.76898
H         -4.88718       65.99976       32.02713
H         -6.44563       66.11752       31.92024
O         -6.87853       68.78650       27.12163
H         -7.38609       69.63551       27.07701
H         -7.10752       68.31383       26.28235
O         -3.28574       67.39222       27.39949
H         -3.31066       66.40900       27.28377
H         -2.48482       67.68496       26.89765
O         -6.57829       65.09341       28.03936
H         -7.34568       65.56835       27.63184
H         -5.89931       65.05566       27.31978

Ca 1.0



