%chk=apoCaM-CA-Ng.loop2.water5.frame650.chk
%nprocshared=20
%mem=10GB
%nosave
#b3lyp/svp scf=(tight,noincore,xqc) Test 
#IOP(5/87=12) Density=Current Pop=(MK,readradii) iop(6/33=2) iop(6/42=6)

apoCaM-CA-Ng.loop2.water5.frame650 

   -2  1 
C        -25.80514       36.57475       20.20707
C        -27.12332       36.72448       20.91236
O        -27.71891       35.71819       21.26937
H        -25.08201       36.05041       20.86531
H        -25.94894       35.98200       19.27861
H        -25.37896       37.56119       19.92595
N        -27.65610       37.95976       21.12803
C        -28.95932       38.16354       21.74995
C        -28.96415       37.67428       23.19204
O        -28.19795       38.18146       24.00026
C        -29.34263       39.65783       21.68960
C        -30.72817       39.90834       22.21734
O        -30.91187       40.72851       23.26916
O        -31.69316       39.37966       21.68817
H        -27.13088       38.78361       20.79473
H        -29.71344       37.60557       21.15046
H        -29.31109       40.00198       20.63257
H        -28.60636       40.25781       22.26873
N        -29.83589       36.70010       23.58324
C        -29.94843       36.22454       24.96092
C        -28.64951       35.58693       25.43070
O        -28.03105       34.90242       24.62780
C        -31.07463       35.19429       25.07772
H        -30.46947       36.30169       22.87289
H        -30.22559       37.09592       25.58383
H        -31.18131       34.86586       26.13421
H        -32.03607       35.64674       24.75442
H        -30.86226       34.30668       24.44394
N        -28.13376       35.73792       26.68910
C        -28.77609       36.41887       27.81667
C        -28.03757       37.70508       28.14132
O        -27.06370       38.00617       27.46324
C        -28.87258       35.45048       29.02504
C        -27.56097       35.02350       29.64351
O        -26.49169       35.45703       29.24529
O        -27.57487       34.15825       30.67518
H        -27.20864       35.31640       26.86203
H        -29.81701       36.69681       27.57633
H        -29.41488       34.53790       28.69257
H        -29.47768       35.92049       29.82862
N        -28.44729       38.52546       29.15689
C        -27.76580       39.77858       29.46938
C        -27.11658       39.73352       30.83826
O        -27.36907       38.78310       31.56660
H        -29.26024       38.25449       29.73122
H        -28.48717       40.61810       29.41156
H        -26.98312       39.95677       28.71902
N        -26.21542       40.66695       31.28379
C        -25.67368       41.82013       30.55662
C        -25.03051       41.39752       29.24839
O        -25.37356       41.92315       28.19677
C        -26.69091       42.97560       30.39301
C        -27.09807       43.60988       31.70459
N        -27.77592       44.78087       31.70030
O        -26.78644       43.10087       32.77164
H        -25.80614       40.50102       32.21715
H        -24.84151       42.24001       31.16497
H        -27.59060       42.67226       29.81947
H        -26.17689       43.77474       29.81629
H        -28.01568       45.24653       30.81261
H        -28.02839       45.24312       32.58650
N        -24.10723       40.39783       29.25045
C        -23.52772       39.84623       28.04208
C        -22.03003       39.70939       28.16109
O        -21.32892       40.70961       28.20787
H        -23.87450       39.93952       30.14477
H        -23.78479       40.43199       27.13273
H        -23.97183       38.84168       27.91400
N        -21.48165       38.46242       28.21711
C        -20.05256       38.17288       28.27409
C        -19.67333       37.29755       27.07898
O        -20.51701       37.05892       26.22516
C        -19.70729       37.52535       29.63944
C        -19.95721       38.50358       30.79246
O        -20.46583       36.36265       29.85175
H        -22.11760       37.65052       28.22142
H        -19.44899       39.10410       28.19478
H        -18.61818       37.29453       29.68545
H        -19.89070       35.58763       29.62098
H        -19.66454       38.03597       31.75636
H        -19.34575       39.42198       30.65357
H        -21.02792       38.79187       30.84971
N        -18.40908       36.80115       26.93983
C        -17.95449       36.07206       25.75753
C        -17.70029       34.61072       26.09429
O        -16.87750       34.31423       26.94852
C        -16.67591       36.75959       25.18826
C        -16.03892       35.93371       24.03548
C        -17.02453       38.18778       24.72246
C        -14.70365       36.49715       23.54576
H        -17.71983       36.96763       27.68670
H        -18.72736       36.09911       24.95894
H        -15.92632       36.82232       26.00905
H        -16.74480       35.84827       23.18231
H        -15.81207       34.90975       24.40080
H        -17.46576       38.77865       25.55184
H        -16.12305       38.73715       24.38766
H        -17.75580       38.15254       23.88548
H        -14.27333       35.81303       22.78420
H        -14.82722       37.49174       23.07447
H        -13.98759       36.57436       24.39251
N        -18.34969       33.64450       25.37956
C        -18.11683       32.21373       25.49549
C        -17.56347       31.62975       24.19286
O        -17.32606       30.42879       24.17827
C        -19.43649       31.50280       25.85589
C        -19.96876       31.94691       27.18782
O        -21.07598       32.45203       27.27066
O        -19.23616       31.76332       28.30270
H        -19.03652       33.93270       24.67796
H        -17.36706       32.00119       26.28893
H        -19.27020       30.40538       25.91203
H        -20.18911       31.69708       25.05938
N        -17.29437       32.38866       23.08038
C        -16.69724       31.83118       21.86580
C        -17.53959       32.17602       20.63050
O        -17.02420       32.83242       19.73290
C        -15.25539       32.38539       21.75024
C        -14.37600       31.76825       20.67457
C        -13.08082       32.28960       20.50964
C        -14.78183       30.69476       19.84986
C        -12.21455       31.75812       19.54968
C        -13.90996       30.16538       18.89503
C        -12.62826       30.69561       18.74448
H        -17.45567       33.40573       23.09680
H        -16.62225       30.72747       21.95280
H        -14.73684       32.21662       22.71925
H        -15.31533       33.48621       21.59038
H        -12.74115       33.11227       21.12739
H        -15.76090       30.24737       19.93248
H        -11.22033       32.16886       19.43215
H        -14.22965       29.33932       18.27276
H        -11.95574       30.28145       18.00475
N        -18.84168       31.77848       20.49137
C        -19.70024       32.12424       19.36142
C        -19.62615       33.58931       18.97170
O        -19.53139       33.89010       17.79090
C        -21.10283       31.78553       19.87717
C        -20.82444       30.56385       20.72069
C        -19.56130       30.98531       21.46767
H        -19.44003       31.47570       18.49316
H        -21.45396       32.58049       20.57518
H        -21.86372       31.65376       19.07807
H        -21.65772       30.22932       21.37365
H        -20.56324       29.73569       20.02136
H        -19.79539       31.62882       22.34278
H        -19.00881       30.07426       21.78137
N        -19.60647       34.54816       19.94067
C        -19.49362       35.97478       19.67142
C        -18.24162       36.24701       18.85584
O        -18.35527       36.76578       17.75307
C        -19.43494       36.84482       20.96220
C        -20.71806       36.93986       21.82195
C        -20.98015       35.83265       22.80647
O        -22.02327       35.93304       23.64891
O        -20.21870       34.89594       22.93194
H        -19.62657       34.22057       20.90378
H        -20.38018       36.29931       19.08167
H        -19.26938       37.88271       20.59593
H        -18.56351       36.58683       21.60271
H        -21.59950       37.09811       21.16629
H        -20.60165       37.84097       22.46236
N        -17.01028       35.91751       19.33391
C        -15.80232       36.16338       18.57701
H        -14.91830       35.80704       19.14713
H        -15.84319       35.62074       17.60828
H        -15.68957       37.25207       18.38658
H        -16.92468       35.47331       20.26051
Ca       -22.17470       34.43649       25.33713
O        -22.76092       34.49156       28.83196
H        -23.55582       35.03611       29.05866
H        -22.19178       35.09602       28.29301
O        -24.81958       34.90192       24.02022
H        -25.49283       35.62718       24.01031
H        -25.34657       34.06699       23.95377
O        -25.01900       33.59111       26.96377
H        -25.35803       33.39072       27.87195
H        -25.60726       33.07167       26.36078
O        -23.21149       31.76810       24.52068
H        -23.95993       31.90093       23.88667
H        -22.42794       31.58661       23.94340
O        -23.99334       36.64268       26.41457
H        -24.46372       36.59371       27.28419
H        -24.50346       37.31154       25.89270

Ca 1.0



