%chk=apoCaM-CA-Ng.loop2.water3.frame138.chk
%nprocshared=20
%mem=10GB
%nosave
#b3lyp/svp scf=(tight,noincore,xqc) Test 
#IOP(5/87=12) Density=Current Pop=(MK,readradii) iop(6/33=2) iop(6/42=6)

apoCaM-CA-Ng.loop2.water3.frame138 

   -2  1 
C         23.20748       65.70654       -6.63539
C         22.78750       66.80525       -7.56718
O         23.20774       66.81022       -8.71529
H         23.72864       66.13945       -5.75611
H         22.31038       65.15074       -6.28851
H         23.89162       64.99431       -7.14431
N         21.93799       67.77420       -7.12726
C         21.43734       68.86197       -7.96169
C         21.86405       70.22748       -7.41266
O         21.50543       71.22299       -8.01564
C         19.89906       68.68613       -8.05197
C         19.18352       69.60864       -9.00950
O         18.62812       69.14712       -9.99378
O         19.07490       70.92605       -8.75672
H         21.60113       67.72030       -6.15235
H         21.84750       68.77942       -8.99233
H         19.43856       68.78084       -7.04470
H         19.71968       67.64520       -8.40491
N         22.63879       70.35751       -6.29090
C         23.01746       71.62479       -5.66422
C         23.95087       72.52227       -6.52137
O         25.10261       71.82979       -6.88735
C         21.78353       72.37113       -5.13985
H         22.96623       69.51189       -5.80371
H         23.61931       71.37546       -4.76092
H         21.22774       71.71830       -4.43363
H         22.09717       73.28689       -4.59547
H         21.08555       72.65851       -5.95047
N         23.35115       73.14249       -7.70578
C         24.23001       74.17369       -8.30903
C         24.46082       73.87896       -9.78690
O         25.14120       74.66158      -10.43657
C         23.64214       75.59605       -8.12657
C         23.51753       76.03761       -6.68800
O         23.91684       75.25340       -5.66894
O         23.06001       77.14117       -6.44089
H         22.40993       73.54140       -7.49563
H         25.24304       74.17243       -7.84216
H         22.64080       75.63957       -8.60685
H         24.30461       76.33147       -8.63241
N         23.98110       72.74416      -10.37807
C         24.24161       72.37965      -11.76114
C         25.72361       72.29950      -12.03694
O         26.17979       72.88769      -13.00767
H         23.43631       72.06666       -9.82696
H         23.75895       73.10524      -12.45241
H         23.79554       71.37888      -11.94824
N         26.54813       71.63327      -11.18170
C         27.99376       71.59819      -11.35875
C         28.36973       70.56475      -12.40145
O         28.08222       69.38880      -12.22519
C         28.69950       71.31430      -10.01968
C         28.46757       72.43803       -9.03443
N         28.92428       73.68850       -9.28751
O         27.86819       72.21681       -7.99499
H         26.13844       71.22054      -10.32895
H         28.34412       72.60051      -11.68916
H         29.79590       71.22141      -10.17736
H         28.32372       70.35404       -9.60698
H         29.44697       73.89941      -10.14997
H         28.76408       74.45140       -8.61313
N         29.02609       70.95569      -13.52644
C         29.43608       70.06113      -14.59297
C         30.49723       69.07881      -14.15517
O         31.47963       69.49656      -13.55745
H         29.24083       71.95693      -13.65102
H         29.89754       70.68273      -15.39059
H         28.55476       69.55009      -15.03703
N         30.41684       67.76612      -14.52296
C         31.52323       66.83143      -14.31354
C         31.58422       66.27523      -12.89488
O         32.57025       65.61936      -12.58858
C         31.53929       65.69860      -15.38113
C         30.33171       64.75058      -15.33495
O         31.69205       66.23884      -16.67147
H         29.61698       67.48232      -15.10616
H         32.47125       67.39168      -14.48385
H         32.43865       65.07155      -15.19291
H         30.84433       66.68815      -16.92349
H         29.37943       65.28365      -15.53046
H         30.45073       63.96171      -16.10771
H         30.27356       64.25368      -14.35043
N         30.58925       66.48085      -11.97940
C         30.66150       65.99442      -10.59633
C         30.58021       67.16135       -9.62949
O         30.34799       68.28081      -10.06859
C         29.54503       64.94590      -10.30220
C         28.12007       65.55366      -10.42982
C         29.72778       63.71920      -11.21054
C         27.00208       64.58628      -10.03855
H         29.75254       67.00945      -12.26236
H         31.64295       65.50393      -10.41469
H         29.67902       64.59813       -9.25413
H         27.93280       65.90077      -11.46763
H         28.03898       66.42892       -9.75067
H         29.03080       62.90352      -10.93381
H         29.54583       63.99209      -12.26645
H         30.75760       63.31480      -11.11107
H         26.95701       63.72092      -10.73018
H         27.14952       64.22537       -8.99880
H         26.02538       65.11156      -10.09741
N         30.77679       66.98044       -8.28694
C         30.65536       68.09428       -7.35177
C         31.37493       67.81625       -6.02794
O         30.84993       68.12779       -4.96925
C         29.14699       68.39862       -7.17762
C         28.81423       69.64533       -6.41854
O         27.64148       69.91007       -6.22099
O         29.77058       70.48420       -5.97529
H         31.04040       66.04641       -7.93815
H         31.19380       68.96087       -7.79715
H         28.67520       67.52862       -6.66919
H         28.66548       68.50137       -8.17148
N         32.61588       67.25019       -6.03298
C         33.46624       67.07165       -4.85388
C         32.73057       66.48709       -3.64416
O         32.13537       65.42785       -3.78808
C         34.62996       66.10910       -5.20581
C         35.53292       65.85679       -4.01842
C         36.36584       66.87215       -3.52273
C         35.52184       64.60450       -3.37747
C         37.16395       66.64327       -2.39744
C         36.31705       64.38123       -2.25036
C         37.13645       65.40025       -1.75944
H         32.99839       66.95157       -6.94341
H         33.88382       68.06411       -4.60713
H         35.23142       66.49072       -6.05863
H         34.17166       65.14781       -5.53080
H         36.38977       67.84228       -4.00302
H         34.88177       63.80740       -3.73528
H         37.79868       67.43203       -2.01570
H         36.29212       63.41975       -1.75372
H         37.74840       65.22674       -0.88393
N         32.79941       67.06164       -2.39407
C         32.27162       66.43757       -1.18574
C         30.78722       66.18025       -1.23383
O         30.33704       65.20406       -0.65078
C         32.60405       67.43783       -0.07312
C         33.89143       68.03902       -0.58435
C         33.54606       68.26067       -2.05119
H         32.82914       65.48709       -1.02316
H         31.85371       68.26187       -0.06184
H         32.65719       66.98884        0.94222
H         34.23846       68.94711       -0.04792
H         34.68745       67.25953       -0.52238
H         32.88183       69.14455       -2.17797
H         34.49234       68.40636       -2.59637
N         29.96363       67.01982       -1.91983
C         28.53081       66.79639       -2.03297
C         28.27624       65.46917       -2.72043
O         27.61011       64.61919       -2.14568
C         27.84630       67.92665       -2.82303
C         27.98851       69.30533       -2.15011
C         27.21225       70.31150       -2.93846
O         27.83193       71.32982       -3.56115
O         26.00844       70.16702       -3.08515
H         30.38084       67.83255       -2.39521
H         28.07925       66.78136       -1.01519
H         26.76375       67.67701       -2.89506
H         28.25732       67.98041       -3.85571
H         29.05463       69.61282       -2.11627
H         27.59319       69.27569       -1.11265
N         28.80599       65.21381       -3.94872
C         28.61202       63.95117       -4.62552
H         27.53183       63.78937       -4.82430
H         29.15873       63.95375       -5.59269
H         29.00475       63.12126       -3.99959
H         29.38356       65.92979       -4.41298
Ca        26.51928       72.19945       -5.15734
O         30.05431       73.61933       -5.63299
H         31.03016       73.45382       -5.60555
H         29.95168       74.38840       -6.24784
O         25.38723       73.53668       -2.60015
H         24.86654       72.69555       -2.63874
H         25.16219       74.00406       -3.44323
O         27.17954       75.23135       -5.98363
H         26.67027       75.28211       -5.13630
H         27.79793       76.00354       -5.94643

Ca 1.0



