%chk=holoCaM-CaMKII.loop2.water2.frame366.chk
%nprocshared=20
%mem=10GB
%nosave
#b3lyp/svp scf=(tight,noincore,xqc) Test 
#IOP(5/87=12) Density=Current Pop=(MK,readradii) iop(6/33=2) iop(6/42=6)

holoCaM-CaMKII.loop2.water2.frame366 

   -2  1 
C         43.03629       68.44989       36.15645
C         42.50660       68.65573       37.54676
O         43.06802       68.13161       38.49673
H         43.93500       67.79854       36.15946
H         42.25383       67.99759       35.51305
H         43.32227       69.43677       35.72895
N         41.43414       69.46693       37.73270
C         40.93848       69.86725       39.04313
C         40.30534       68.71474       39.82355
O         39.40351       68.07818       39.29608
C         39.87765       70.97398       38.85935
C         39.58032       71.68921       40.14004
O         40.34291       71.47593       41.22769
O         38.69828       72.53090       40.17498
H         41.01200       69.89447       36.89269
H         41.79583       70.30801       39.59864
H         38.95016       70.52918       38.43604
H         40.24309       71.74882       38.15267
N         40.67564       68.44717       41.11382
C         40.03384       67.42917       41.94830
C         39.36501       67.99681       43.21182
O         38.70775       67.22184       43.89360
C         41.07894       66.38280       42.35289
H         41.43455       69.00064       41.52550
H         39.23804       66.91321       41.36883
H         41.88279       66.85446       42.95989
H         40.61337       65.57038       42.95166
H         41.53747       65.92955       41.44866
N         39.51598       69.29519       43.62314
C         38.98881       69.80391       44.89996
C         38.42937       71.23617       44.83671
O         37.99413       71.72441       45.87078
C         40.08400       69.69370       45.98587
C         41.32208       70.49311       45.70153
O         41.41416       71.24628       44.59475
O         42.27199       70.43011       46.46484
H         40.15240       69.89336       43.09106
H         38.15622       69.15299       45.24736
H         40.38159       68.62559       46.07017
H         39.67359       70.00967       46.96938
N         38.38128       71.96484       43.68346
C         37.80441       73.30212       43.59213
C         38.54315       74.41456       44.33163
O         37.98521       75.50139       44.38940
H         38.67404       71.52737       42.81021
H         36.76667       73.24667       43.98714
H         37.73318       73.60322       42.52512
N         39.75568       74.24867       44.94132
C         40.33321       75.27534       45.81649
C         40.71503       76.60287       45.14759
O         41.00933       77.52938       45.89019
C         41.54962       74.72804       46.61119
C         42.79354       74.48566       45.79038
N         43.93508       74.07710       46.38734
O         42.78718       74.67253       44.58722
H         40.22237       73.33731       44.87597
H         39.54753       75.50203       46.57101
H         41.26357       73.78377       47.12313
H         41.81734       75.47126       47.39252
H         43.97245       73.91439       47.40327
H         44.78887       73.93677       45.82807
N         40.79145       76.77290       43.79216
C         41.18450       78.03953       43.17349
C         42.51886       77.99132       42.43999
O         42.92574       79.03463       41.94838
H         40.57724       75.98437       43.17381
H         41.28885       78.83446       43.94254
H         40.38576       78.36522       42.47432
N         43.25722       76.84971       42.31836
C         44.59337       76.79260       41.71255
C         44.96717       75.37165       41.28063
O         44.24622       74.42172       41.55494
C         45.69050       77.29987       42.71198
C         45.72686       78.81345       42.91693
O         45.54225       76.67657       43.96372
H         42.83987       75.97780       42.65135
H         44.59855       77.37873       40.76726
H         46.70470       77.08050       42.31084
H         45.86939       75.74457       43.87154
H         45.86735       79.32418       41.93954
H         44.81922       79.18950       43.42223
H         46.59235       79.07419       43.56487
N         46.13681       75.17213       40.60645
C         46.66336       73.86762       40.23072
C         47.67190       73.47228       41.28540
O         48.53783       74.26892       41.62306
C         47.31754       73.91149       38.81690
C         46.27478       74.32457       37.74797
C         47.94589       72.54103       38.47205
C         46.87319       74.51498       36.35126
H         46.74254       75.98649       40.42186
H         45.85367       73.10405       40.20766
H         48.13069       74.67161       38.83244
H         45.82155       75.29615       38.03826
H         45.46467       73.56571       37.69455
H         48.71132       72.25537       39.22111
H         47.16765       71.74875       38.43967
H         48.47714       72.56662       37.50111
H         47.67651       75.28159       36.37905
H         47.28205       73.56810       35.94549
H         46.08012       74.85705       35.65412
N         47.63010       72.22570       41.82424
C         48.52262       71.77276       42.88019
C         49.54284       70.81671       42.29907
O         49.48995       70.53148       41.11054
C         47.70784       71.02239       43.95569
C         46.47778       71.72944       44.41996
O         45.54374       72.05400       43.51139
O         46.25776       71.87721       45.61096
H         46.94963       71.55010       41.44781
H         49.05309       72.63551       43.33813
H         48.34527       70.78043       44.83053
H         47.34010       70.07162       43.50636
N         50.50591       70.26724       43.08727
C         51.42363       69.25047       42.59706
C         50.68662       67.96115       42.21220
O         50.93640       67.48932       41.11379
C         52.53960       68.95059       43.61026
C         53.54933       68.01285       42.98787
C         54.30734       68.42121       41.87211
C         53.72089       66.71580       43.49419
C         55.21304       67.54295       41.27345
C         54.62729       65.83931       42.88973
C         55.37153       66.25172       41.78045
H         50.58085       70.57738       44.06861
H         51.92594       69.66724       41.69553
H         52.09884       68.51675       44.52986
H         53.05887       69.89083       43.89723
H         54.19608       69.41700       41.46046
H         53.14229       66.37867       44.34474
H         55.78804       67.86302       40.41354
H         54.74831       64.83732       43.27834
H         56.06977       65.57071       41.31218
N         49.76480       67.32417       43.01340
C         49.04037       66.12176       42.60772
C         48.06387       66.34163       41.45114
O         47.44260       65.36744       41.04938
C         48.33550       65.66921       43.89396
C         48.07106       66.98374       44.58764
C         49.38722       67.71697       44.35697
H         49.74503       65.32021       42.29526
H         47.45473       65.00567       43.75591
H         49.07713       65.13063       44.52739
H         47.26730       67.50955       44.02240
H         47.76850       66.91333       45.65428
H         49.19389       68.78476       44.48753
H         50.17486       67.37665       45.06290
N         47.91092       67.54965       40.83038
C         47.08831       67.74893       39.63852
C         47.94668       68.07611       38.41862
O         47.42313       68.01879       37.31486
C         46.08405       68.88562       39.88144
C         45.18176       68.60064       41.09198
C         44.29262       69.75399       41.45186
O         43.50710       69.65156       42.53770
O         44.29548       70.78979       40.80592
H         48.40807       68.36581       41.19478
H         46.53859       66.81295       39.39674
H         45.46119       69.05145       38.97596
H         46.66531       69.81149       40.06822
H         45.81037       68.39970       41.98361
H         44.55532       67.70595       40.88704
N         49.26161       68.42761       38.53115
C         50.13998       68.68103       37.41042
H         51.01941       68.00561       37.48819
H         49.64582       68.50261       36.43457
H         50.49816       69.73105       37.45302
H         49.68623       68.54356       39.45163
Ca        43.39684       72.05573       44.03406
O         41.08157       74.14338       41.62495
H         40.10701       74.11752       41.79345
H         41.19820       74.88756       40.98294
O         42.76073       72.95575       39.63400
H         42.08038       73.25798       38.98293
H         43.58720       72.85011       39.10158

Ca 1.0



