%chk=holoCaM.loop2.water2.frame309.chk
%nprocshared=20
%mem=10GB
%nosave
#b3lyp/svp scf=(tight,noincore,xqc) Test 
#IOP(5/87=12) Density=Current Pop=(MK,readradii) iop(6/33=2) iop(6/42=6)

holoCaM.loop2.water2.frame309 

   -2  1 
C         14.23714       34.79569       49.74836
C         13.46942       35.04035       48.48123
O         13.56825       36.11680       47.91220
H         14.84960       35.68013       50.02398
H         13.54030       34.55564       50.57672
H         14.92384       33.93349       49.59526
N         12.72397       34.03636       47.94879
C         12.10133       34.11348       46.63379
C         10.85020       34.98986       46.61899
O          9.94882       34.75590       47.41159
C         11.74118       32.69058       46.15783
C         11.46660       32.61587       44.68355
O         11.09613       31.44382       44.13683
O         11.64580       33.58397       43.96392
H         12.71444       33.13377       48.44987
H         12.87030       34.49647       45.92922
H         10.87018       32.31322       46.73494
H         12.60114       32.01004       46.33510
N         10.71183       35.97626       45.68760
C          9.53967       36.83189       45.54092
C          8.86735       36.69873       44.16569
O          7.85239       37.35559       43.97512
C          9.96727       38.28952       45.76718
H         11.48024       36.12021       45.03650
H          8.77853       36.57476       46.30873
H         10.42038       38.40235       46.77533
H         10.71795       38.59969       45.00715
H          9.09464       38.97461       45.70254
N          9.36221       35.91380       43.15357
C          8.78726       35.91200       41.80311
C          8.86446       34.56412       41.05758
O          8.38679       34.51312       39.93232
C          9.40165       37.07329       40.99247
C         10.89793       37.01502       40.90037
O         11.44568       36.07594       40.35553
O         11.64340       38.01579       41.40615
H         10.26456       35.44938       43.28762
H          7.69798       36.13055       41.86777
H          9.12796       38.02804       41.49188
H          8.96737       37.09592       39.96983
N          9.37487       33.42564       41.61363
C          9.32108       32.11169       40.97383
C         10.19760       31.89772       39.74609
O         10.13743       30.80223       39.20475
H          9.71522       33.44948       42.57780
H          8.26499       31.89324       40.70500
H          9.63863       31.34727       41.71617
N         11.03264       32.85016       39.24052
C         11.85553       32.63656       38.04300
C         13.03166       31.66131       38.23788
O         13.78442       31.47258       37.29176
C         12.32755       33.99006       37.45958
C         13.26028       34.80807       38.31081
N         13.68988       36.00330       37.84898
O         13.62482       34.41556       39.40771
H         11.03987       33.77469       39.68306
H         11.20049       32.21806       37.24602
H         11.42650       34.60925       37.25438
H         12.83332       33.80368       36.48708
H         13.38465       36.35436       36.92970
H         14.32524       36.58296       38.40698
N         13.23375       30.97265       39.40044
C         14.29052       29.98638       39.59242
C         15.67468       30.56052       39.85240
O         16.57815       29.76926       40.07973
H         12.55961       31.06683       40.16510
H         14.30663       29.28018       38.73294
H         14.04130       29.39308       40.49885
N         15.92631       31.90078       39.85656
C         17.23657       32.48916       40.14593
C         17.13659       33.49772       41.29142
O         16.05344       33.72165       41.80661
C         17.78397       33.16396       38.86005
C         18.11283       32.11873       37.79060
O         16.85408       34.07707       38.33473
H         15.16381       32.54728       39.63018
H         17.96656       31.71246       40.46459
H         18.74490       33.68571       39.06511
H         16.84203       34.86216       38.94077
H         18.87919       31.41022       38.17450
H         17.20888       31.54619       37.49563
H         18.52641       32.61900       36.88933
N         18.24579       34.17747       41.70969
C         18.23272       35.23334       42.71957
C         18.39495       36.58064       42.02560
O         19.30450       36.76815       41.23145
C         19.28020       34.95869       43.85464
C         18.67225       33.92763       44.85155
C         19.67303       36.25310       44.60119
C         19.55604       33.56414       46.04796
H         19.14466       33.99018       41.24231
H         17.24841       35.28490       43.21724
H         20.21846       34.56703       43.40379
H         18.42238       32.99318       44.30558
H         17.73178       34.34746       45.27376
H         20.45331       36.05890       45.36354
H         20.12941       36.98469       43.90219
H         18.79445       36.71544       45.08842
H         19.02028       32.82701       46.68427
H         20.51385       33.12163       45.70945
H         19.75453       34.44689       46.69091
N         17.52883       37.58425       42.35508
C         17.52334       38.93729       41.81531
C         18.01089       39.88627       42.89237
O         18.39051       39.41820       43.94806
C         16.09062       39.29075       41.37201
C         15.63005       38.39528       40.26002
O         15.59150       37.06200       40.43618
O         15.29060       38.87244       39.18965
H         16.84013       37.40714       43.09386
H         18.21995       39.02828       40.95363
H         16.04269       40.34384       41.02391
H         15.39509       39.18336       42.23419
N         18.11504       41.22837       42.67444
C         18.79202       42.10012       43.63109
C         18.08140       42.21846       44.98385
O         18.72071       41.84299       45.95884
C         19.18207       43.43931       42.97366
C         20.01361       44.31880       43.88169
C         21.16757       43.82134       44.52222
C         19.65075       45.66098       44.08162
C         21.92507       44.64448       45.35620
C         20.42539       46.48672       44.90234
C         21.55763       45.97734       45.54333
H         17.82674       41.60936       41.76205
H         19.76671       41.60782       43.83168
H         18.29778       43.98458       42.59535
H         19.80310       43.19492       42.08455
H         21.48811       42.79723       44.39313
H         18.77837       46.07399       43.59067
H         22.80054       44.24682       45.85346
H         20.14825       47.52308       45.04063
H         22.15330       46.61514       46.18244
N         16.80500       42.68838       45.17650
C         16.13141       42.69871       46.47569
C         16.28321       41.39787       47.24020
O         16.55401       41.42291       48.43156
C         14.65521       42.90283       46.10996
C         14.76851       43.81461       44.91643
C         15.91432       43.16654       44.13569
H         16.50443       43.55725       47.07918
H         14.21274       41.95058       45.73518
H         14.02345       43.27665       46.94519
H         13.83300       43.96459       44.33694
H         15.11112       44.80503       45.29807
H         15.57463       42.29846       43.53008
H         16.35433       43.94961       43.49474
N         16.14349       40.21649       46.58045
C         16.23655       38.90951       47.21808
C         17.59557       38.73157       47.88004
O         17.64967       38.45610       49.07036
C         15.95301       37.76925       46.20588
C         14.62436       37.98311       45.44647
C         14.11783       36.74056       44.72984
O         15.09833       36.08791       43.99135
O         13.11043       37.10094       43.83067
H         15.96861       40.26860       45.56954
H         15.44270       38.84095       47.99534
H         15.91455       36.81840       46.78046
H         16.76547       37.68732       45.45720
H         14.74247       38.79226       44.69790
H         13.82173       38.27465       46.15688
N         18.73963       38.92353       47.17092
C         20.06177       38.82134       47.74543
H         20.82406       39.07162       46.97436
H         20.16856       39.54075       48.58475
H         20.24405       37.78749       48.10274
H         18.67321       39.18781       46.18800
Ca        13.81960       35.77136       42.14361
O         13.62475       32.46063       42.11007
H         12.72674       32.05139       42.15465
H         14.20603       31.83122       42.60557
O         14.83326       33.30298       44.79469
H         15.69202       33.60564       44.41184
H         15.08777       32.61933       45.46216

Ca 1.0



