%chk=holoCaM-CaMKII.loop2.water2.frame363.chk
%nprocshared=20
%mem=10GB
%nosave
#b3lyp/svp scf=(tight,noincore,xqc) Test 
#IOP(5/87=12) Density=Current Pop=(MK,readradii) iop(6/33=2) iop(6/42=6)

holoCaM-CaMKII.loop2.water2.frame363 

   -2  1 
C         42.35362       49.44621       38.94197
C         42.01639       49.10088       40.36400
O         42.86801       48.60939       41.08847
H         43.40801       49.19154       38.70586
H         41.68076       48.89937       38.24920
H         42.21301       50.53880       38.78866
N         40.77270       49.37099       40.83718
C         40.37614       49.18568       42.22791
C         40.38063       47.71633       42.64364
O         39.71536       46.92439       41.99003
C         38.95343       49.75261       42.42184
C         38.57467       49.87199       43.86516
O         39.49011       49.67028       44.83091
O         37.44854       50.23055       44.16625
H         40.09653       49.79446       40.18121
H         41.07272       49.77966       42.85987
H         38.22475       49.10395       41.88749
H         38.88379       50.77538       41.99398
N         41.06095       47.29591       43.75500
C         41.04126       45.91266       44.23543
C         40.44426       45.75275       45.64496
O         40.24827       44.61492       46.04856
C         42.46814       45.35346       44.20006
H         41.61030       47.98646       44.28111
H         40.41728       45.29080       43.55805
H         42.87779       45.42235       43.16907
H         43.12946       45.93344       44.88033
H         42.48302       44.28666       44.50932
N         40.17041       46.81350       46.46477
C         39.65602       46.68913       47.83903
C         38.52726       47.69078       48.15592
O         38.11428       47.74464       49.30627
C         40.82486       46.81652       48.85125
C         41.70488       47.97856       48.53759
O         41.17754       49.19673       48.36845
O         42.87443       47.78688       48.24145
H         40.43552       47.75439       46.15095
H         39.23102       45.67742       48.01984
H         41.45101       45.89865       48.78072
H         40.44372       46.87564       49.89249
N         37.93470       48.46597       47.19977
C         36.80506       49.35870       47.45879
C         37.09915       50.62758       48.25920
O         36.14801       51.34200       48.54244
H         38.20744       48.33231       46.22283
H         36.01583       48.77507       47.98126
H         36.37713       49.68779       46.48907
N         38.34927       50.97759       48.67796
C         38.60856       52.11205       49.57551
C         38.55375       53.51142       48.93129
O         38.83183       54.47314       49.63539
C         39.94112       51.90598       50.33690
C         41.20215       51.97645       49.52148
N         42.39622       51.88738       50.14667
O         41.16253       52.11773       48.31120
H         39.12174       50.34558       48.45213
H         37.84469       52.08339       50.38387
H         39.91540       50.91968       50.85034
H         40.01380       52.69022       51.12073
H         42.44958       51.76642       51.16805
H         43.27003       51.95557       49.61521
N         38.18553       53.72350       47.63457
C         38.10261       55.05091       47.02160
C         39.43965       55.70791       46.67716
O         39.40917       56.79865       46.12552
H         37.86465       52.92583       47.07501
H         37.50280       55.72366       47.67494
H         37.55592       54.95340       46.05950
N         40.63894       55.12347       46.95703
C         41.94720       55.70016       46.64081
C         42.81134       54.70175       45.88106
O         42.93280       53.56833       46.32127
C         42.68564       56.08978       47.94460
C         42.01388       57.27260       48.64158
O         42.74429       55.00624       48.83865
H         40.63662       54.23032       47.45173
H         41.85563       56.63018       46.03563
H         43.71670       56.43740       47.68990
H         43.55773       54.48343       48.61658
H         42.59133       57.54538       49.55052
H         41.99859       58.15460       47.96476
H         40.97417       57.02292       48.93753
N         43.52110       55.08137       44.77757
C         44.50539       54.20391       44.13760
C         45.61388       53.87905       45.13572
O         46.19714       54.79456       45.69887
C         45.10702       54.83847       42.83731
C         43.98324       55.05283       41.78496
C         46.21795       53.92967       42.25934
C         44.46227       55.61444       40.44349
H         43.40747       56.04434       44.42717
H         44.00791       53.26315       43.82312
H         45.57232       55.81910       43.08413
H         43.23140       55.76057       42.19011
H         43.47382       54.08848       41.57991
H         47.04057       53.79589       42.98829
H         45.80839       52.93530       41.98501
H         46.69780       54.38307       41.37015
H         45.12508       54.89536       39.91914
H         43.58532       55.77993       39.78298
H         44.99395       56.57752       40.58730
N         45.99916       52.58371       45.33263
C         47.10777       52.18377       46.19511
C         48.30015       51.80178       45.34061
O         48.20167       51.81380       44.12408
C         46.70135       50.99381       47.08868
C         45.55720       51.32288       47.99234
O         44.47541       51.62597       47.52172
O         45.71164       51.25575       49.32841
H         45.54626       51.84932       44.77799
H         47.42818       53.03612       46.83363
H         47.56135       50.69003       47.72217
H         46.41659       50.12458       46.45549
N         49.49542       51.50589       45.92510
C         50.69573       51.24314       45.14353
C         50.57526       49.99402       44.27833
O         50.83472       50.12684       43.08986
C         51.95818       51.26166       46.02967
C         53.21799       51.05460       45.21714
C         53.50997       51.87415       44.10775
C         54.11545       50.03085       45.56246
C         54.66406       51.65753       43.35281
C         55.27795       49.82905       44.81270
C         55.54888       50.63747       43.70576
H         49.56888       51.54336       46.95231
H         50.81987       52.10826       44.45800
H         51.89237       50.51120       46.84000
H         52.01638       52.25927       46.51692
H         52.84566       52.67431       43.81083
H         53.91983       49.39244       46.41493
H         54.87085       52.28249       42.49344
H         55.96793       49.04311       45.08890
H         56.44488       50.47515       43.12177
N         50.18414       48.76290       44.73387
C         49.98333       47.61130       43.85807
C         49.10706       47.92320       42.64812
O         49.34310       47.38661       41.57661
C         49.25952       46.60160       44.76383
C         49.85411       46.91328       46.11548
C         49.84784       48.43934       46.10831
H         50.97601       47.22064       43.54140
H         48.17718       46.85944       44.83828
H         49.34620       45.54347       44.43426
H         49.34015       46.44982       46.98490
H         50.91305       46.56510       46.10104
H         48.84177       48.85239       46.33994
H         50.59233       48.78054       46.84899
N         48.04221       48.76062       42.78460
C         47.06878       49.03534       41.72849
C         47.61381       49.93458       40.63146
O         47.08894       49.88601       39.52739
C         45.82895       49.72199       42.32569
C         45.19093       48.87061       43.43438
C         44.08093       49.57516       44.13535
O         43.60818       49.02514       45.25489
O         43.65764       50.65601       43.76466
H         47.89697       49.18169       43.71199
H         46.73319       48.06755       41.29338
H         45.07709       49.91594       41.53046
H         46.14176       50.69703       42.75565
H         45.93206       48.65545       44.22738
H         44.83272       47.89673       43.03811
N         48.58262       50.85745       40.88980
C         49.07863       51.80612       39.91326
H         50.16915       51.65531       39.77223
H         48.57568       51.70701       38.92892
H         48.90772       52.83757       40.28944
H         48.97820       50.91947       41.83291
Ca        42.20455       50.08082       46.61775
O         41.55233       52.47478       42.95014
H         40.70048       52.43450       42.44930
H         42.23523       52.19414       42.29204
O         39.77484       52.50250       45.32899
H         39.81917       53.31544       44.76827
H         38.83941       52.19996       45.22750

Ca 1.0



