%chk=holoCaM.loop2.water2.frame395.chk
%nprocshared=20
%mem=10GB
%nosave
#b3lyp/svp scf=(tight,noincore,xqc) Test 
#IOP(5/87=12) Density=Current Pop=(MK,readradii) iop(6/33=2) iop(6/42=6)

holoCaM.loop2.water2.frame395 

   -2  1 
C        103.59397       64.79424       95.93470
C        104.27211       66.13053       95.98703
O        104.47907       66.72424       94.93785
H        102.59952       64.91028       95.45261
H        104.20580       64.08587       95.33962
H        103.44235       64.37489       96.95124
N        104.62076       66.68902       97.18058
C        105.18922       68.02520       97.26767
C        106.56687       68.08847       96.60693
O        107.47840       67.40459       97.05201
C        105.28262       68.49009       98.74021
C        105.63944       69.94902       98.83136
O        105.82150       70.47423       99.91258
O        105.75482       70.67608       97.70840
H        104.41282       66.17443       98.05071
H        104.47532       68.70872       96.75610
H        106.03537       67.87461       99.27889
H        104.29986       68.35840       99.24329
N        106.78009       68.91095       95.53941
C        108.06888       69.05939       94.86574
C        109.12039       69.66222       95.78620
O        110.14957       69.03329       95.98849
C        107.91400       69.93223       93.61602
H        105.97679       69.44385       95.17741
H        108.40907       68.05756       94.51879
H        107.17812       69.46648       92.92574
H        107.55778       70.95058       93.87810
H        108.88645       70.01394       93.08525
N        108.91969       70.86930       96.39692
C        109.87104       71.46188       97.34463
C        110.16771       70.47968       98.46909
O        111.31876       70.32136       98.84950
C        109.30614       72.74797       97.98253
C        109.02353       73.87597       97.02105
O        109.93505       74.41483       96.41483
O        107.76516       74.34122       96.89041
H        108.02922       71.35657       96.21921
H        110.81908       71.72246       96.82427
H        110.03230       73.13623       98.72682
H        108.38501       72.48276       98.53459
N        109.15876       69.73132       98.98901
C        109.32564       68.71205      100.00333
C        109.56497       69.29680      101.36756
O        110.50870       68.89274      102.03135
H        108.21859       69.83864       98.59110
H        110.11603       67.98739       99.70639
H        108.37189       68.14802      100.08063
N        108.70320       70.22976      101.86554
C        108.76022       70.73869      103.23273
C        107.43964       70.52443      103.98429
O        107.42175       70.76671      105.18308
C        109.13595       72.23167      103.22339
C        110.48397       72.45510      102.57997
N        110.60950       73.23566      101.48181
O        111.47561       71.92665      103.06071
H        107.97714       70.59423      101.23638
H        109.54145       70.18965      103.80317
H        109.18428       72.61460      104.26510
H        108.35078       72.80512      102.68756
H        109.78887       73.69550      101.06275
H        111.53344       73.38240      101.04807
N        106.29590       70.10054      103.36303
C        105.03631       69.83699      104.04538
C        103.99821       70.89170      103.71711
O        103.40188       71.41646      104.64192
H        106.28962       69.94471      102.35012
H        105.16767       69.80183      105.14928
H        104.67654       68.83501      103.72748
N        103.71739       71.22876      102.42519
C        102.77543       72.27691      101.99620
C        102.53323       72.18418      100.48129
O        103.42000       71.78849       99.74191
C        103.23586       73.72897      102.34407
C        103.12499       74.13023      103.82325
O        104.54989       73.92411      101.89756
H        104.19692       70.67980      101.70290
H        101.78958       72.08360      102.47233
H        102.54854       74.41825      101.80115
H        104.77401       74.88089      102.03957
H        103.88298       73.63399      104.45336
H        103.32529       75.21766      103.92757
H        102.09812       73.93571      104.20019
N        101.31817       72.52545       99.96060
C        100.93476       72.32450       98.56192
C        100.72643       73.64616       97.82315
O        100.12678       74.57071       98.34927
C         99.68974       71.36769       98.50191
C        100.18792       69.89842       98.63127
C         98.85111       71.54260       97.22175
C         99.08687       68.83491       98.61222
H        100.60168       72.90346      100.59855
H        101.74770       71.82282       98.00265
H         99.00118       71.62110       99.33839
H        100.75820       69.78705       99.57777
H        100.87766       69.67253       97.78551
H         97.94246       70.90928       97.24597
H         98.46977       72.58277       97.14670
H         99.44915       71.29577       96.32762
H         98.53754       68.83209       97.64800
H         99.54883       67.83010       98.71661
H         98.37685       68.99527       99.44850
N        101.10625       73.70586       96.50765
C        100.87770       74.81373       95.58310
C         99.82774       74.39889       94.55658
O         99.30636       73.30325       94.64647
C        102.19557       75.13028       94.83999
C        103.28371       75.57654       95.76370
O        104.32210       74.93943       95.84303
O        103.13356       76.70663       96.47914
H        101.53208       72.86810       96.09335
H        100.50302       75.71248       96.11844
H        102.04447       75.94118       94.09865
H        102.52613       74.22177       94.28552
N         99.46062       75.23900       93.54476
C         98.47391       74.86235       92.53422
C         98.90981       73.64250       91.71072
O         98.15628       72.67459       91.72148
C         98.13387       76.06447       91.62443
C         97.14448       75.67952       90.54752
C         95.85139       75.23984       90.88321
C         97.51829       75.73863       89.19364
C         94.95277       74.86229       89.88080
C         96.61719       75.35821       88.19545
C         95.33586       74.91979       88.53835
H         99.87940       76.17808       93.50294
H         97.53151       74.60015       93.06546
H         99.05787       76.46136       91.16764
H         97.70904       76.88906       92.23660
H         95.53900       75.18561       91.91828
H         98.50966       76.06833       88.90940
H         93.95996       74.52189       90.14512
H         96.91448       75.40007       87.15569
H         94.64049       74.62365       87.76382
N        100.05991       73.57240       90.96108
C        100.40296       72.43362       90.11294
C        100.81938       71.18795       90.88532
O        101.12090       70.18947       90.24905
C        101.53759       72.96997       89.23733
C        102.24098       73.91235       90.18787
C        101.06061       74.61791       90.85018
H         99.55288       72.15582       89.44982
H        102.17218       72.19889       88.75003
H        101.08797       73.60245       88.43726
H        102.76065       73.29147       90.95316
H        102.97935       74.59780       89.72077
H        101.39162       75.02355       91.82613
H        100.67365       75.41646       90.18595
N        100.81844       71.15319       92.24468
C        101.07715       69.94815       93.01619
C         99.74376       69.29597       93.31788
O         99.57528       68.12458       93.00855
C        101.86101       70.30743       94.28928
C        103.21177       70.95530       93.93331
C        103.98685       71.39410       95.13588
O        103.50352       71.21202       96.37755
O        105.06977       71.93454       94.98371
H        100.53645       71.98701       92.77154
H        101.69775       69.22393       92.44132
H        102.03768       69.39094       94.89530
H        101.25882       71.01153       94.89369
H        103.04417       71.85770       93.30824
H        103.82684       70.22945       93.35886
N         98.72136       70.02461       93.84740
C         97.38682       69.51041       94.06638
H         96.67320       70.08547       93.43701
H         97.29778       68.43694       93.80212
H         97.10900       69.64490       95.13136
H         98.87208       71.01541       94.06357
Ca       106.18679       72.85760       97.45849
O        106.94036       73.62230      100.40082
H        106.06576       73.52824       99.95022
H        107.17518       72.69571      100.65031
O        104.28250       75.33338       98.98087
H        104.60764       75.64693       99.85944
H        104.74378       75.92740       98.33905

Ca 1.0



