%chk=holoCaM.loop2.water2.frame439.chk
%nprocshared=20
%mem=10GB
%nosave
#b3lyp/svp scf=(tight,noincore,xqc) Test 
#IOP(5/87=12) Density=Current Pop=(MK,readradii) iop(6/33=2) iop(6/42=6)

holoCaM.loop2.water2.frame439 

   -2  1 
C         13.94512      105.27888       68.71579
C         14.78275      106.49187       68.98863
O         15.88597      106.60404       68.47395
H         12.97989      105.58936       68.26153
H         14.46284      104.57976       68.02805
H         13.73669      104.75662       69.67434
N         14.29400      107.45536       69.80885
C         15.01456      108.67094       70.16099
C         16.27988      108.32748       70.93708
O         16.17901      107.65096       71.95122
C         14.07076      109.55430       70.99706
C         14.60250      110.90710       71.32143
O         13.85547      111.71379       72.08481
O         15.67637      111.29443       70.89723
H         13.34633      107.31209       70.19502
H         15.26834      109.22871       69.23628
H         13.82344      109.03278       71.94634
H         13.12807      109.71820       70.42912
N         17.50367      108.77379       70.52225
C         18.75582      108.43562       71.19324
C         19.40303      109.62140       71.90214
O         20.38258      109.39294       72.59864
C         19.72991      107.84186       70.16836
H         17.55227      109.37051       69.68957
H         18.56415      107.67306       71.97840
H         19.97402      108.59835       69.38990
H         20.67538      107.52612       70.65825
H         19.27710      106.95808       69.67135
N         18.93206      110.89947       71.79142
C         19.50913      112.03702       72.51174
C         18.47841      112.75058       73.39360
O         18.83187      113.73985       74.02037
C         20.18462      112.99401       71.51103
C         19.24048      113.57800       70.50555
O         19.40976      113.36380       69.31613
O         18.22383      114.36313       70.90683
H         18.14593      111.09134       71.15787
H         20.31908      111.69750       73.19351
H         20.98027      112.42781       70.97711
H         20.67517      113.82675       72.05883
N         17.20205      112.28799       73.52616
C         16.19955      112.88910       74.38882
C         15.74512      114.26178       73.94326
O         15.77095      115.17595       74.75508
H         16.92220      111.42419       73.04635
H         16.57258      112.91699       75.43673
H         15.29789      112.23990       74.37746
N         15.26074      114.46654       72.68261
C         14.63817      115.71639       72.24926
C         13.21571      115.48390       71.71774
O         12.70401      116.33051       70.99801
C         15.54323      116.46966       71.24495
C         15.73320      115.87034       69.83244
N         15.26996      116.81333       68.81883
O         15.07308      114.65217       69.67785
H         15.31587      113.69515       72.00626
H         14.54700      116.41597       73.10947
H         16.54760      116.60579       71.69935
H         15.12648      117.49715       71.14108
H         15.87386      117.66605       68.85862
H         15.39531      116.39158       67.87542
N         12.49234      114.38487       72.08815
C         11.12138      114.12826       71.66223
C         10.93691      113.74789       70.19779
O          9.78641      113.59420       69.81053
H         12.89061      113.74098       72.78174
H         10.50999      115.02770       71.89075
H         10.71087      113.28587       72.26110
N         11.97529      113.53156       69.33605
C         11.79520      113.20372       67.90922
C         13.03477      112.52378       67.31029
O         14.02230      112.35372       68.01067
C         11.47340      114.48674       67.07556
C         10.13231      115.16020       67.38562
O         12.51601      115.42445       67.17714
H         12.92387      113.56149       69.72647
H         10.97786      112.45532       67.80653
H         11.39315      114.19198       66.00891
H         12.53753      115.75284       68.11381
H          9.30179      114.43257       67.26416
H         10.11651      115.59132       68.40583
H          9.96837      115.99752       66.67439
N         13.04046      112.08166       66.01108
C         14.20057      111.45736       65.36695
C         14.61065      112.21165       64.09429
O         13.76640      112.50879       63.26056
C         13.97739      109.93487       65.10621
C         12.87966      109.61494       64.06359
C         13.72229      109.22188       66.44767
C         12.78083      108.11793       63.74799
H         12.17857      112.17110       65.45221
H         15.07516      111.48433       66.05514
H         14.93215      109.53853       64.69895
H         13.13622      110.11556       63.10803
H         11.89058      109.98397       64.40618
H         14.54303      109.45924       67.15019
H         12.75923      109.54657       66.89569
H         13.71483      108.11967       66.33700
H         12.43879      107.53578       64.62698
H         12.04564      107.95481       62.93326
H         13.76702      107.72898       63.41837
N         15.92917      112.47407       63.85873
C         16.48208      113.03506       62.62744
C         16.94630      111.89346       61.72971
O         16.67487      110.74974       62.04473
C         17.68538      113.96251       62.94696
C         17.34557      115.14515       63.79320
O         16.49613      115.94415       63.43250
O         18.04587      115.37438       64.91831
H         16.60269      112.10120       64.52619
H         15.71482      113.61591       62.07009
H         18.10259      114.38730       62.01401
H         18.49015      113.37768       63.44515
N         17.65355      112.13208       60.59010
C         18.10719      111.10061       59.65980
C         18.95290      109.98631       60.30593
O         18.57453      108.83880       60.11596
C         18.86316      111.77286       58.49140
C         19.26230      110.80623       57.40727
C         18.28195      110.13871       56.65323
C         20.61988      110.57942       57.12626
C         18.65628      109.26005       55.63295
C         20.98961      109.69645       56.10817
C         20.00894      109.03872       55.36078
H         17.86747      113.10883       60.34771
H         17.19847      110.62198       59.23029
H         19.75400      112.29574       58.88764
H         18.21799      112.55236       58.02997
H         17.22983      110.30624       56.84718
H         21.39159      111.08399       57.69464
H         17.89715      108.75384       55.05097
H         22.03696      109.52518       55.89688
H         20.29716      108.35948       54.56945
N         20.09228      110.18743       61.04912
C         20.91330      109.09622       61.57577
C         20.16539      108.26267       62.60932
O         20.20033      107.04389       62.51114
C         22.16758      109.80672       62.09836
C         21.65292      111.16353       62.51631
C         20.65073      111.48020       61.40325
H         21.25823      108.40793       60.77031
H         22.76297      109.24238       62.84780
H         22.82611      110.00128       61.22002
H         21.11865      111.03626       63.47760
H         22.42887      111.94228       62.67252
H         19.90494      112.19351       61.80448
H         21.17182      111.89731       60.51808
N         19.39497      108.84870       63.56569
C         18.53049      108.12012       64.49691
C         17.61819      107.17002       63.72456
O         17.54157      106.00443       64.08706
C         17.73270      109.15272       65.33383
C         18.64473      109.84023       66.38037
C         18.05488      111.11273       66.93172
O         18.05575      112.12115       66.25074
O         17.58605      111.18548       68.18738
H         19.34176      109.87510       63.57043
H         19.13194      107.49846       65.19803
H         16.89968      108.66679       65.88859
H         17.29019      109.88691       64.62956
H         19.63385      110.11028       65.95394
H         18.81939      109.10512       67.19591
N         16.98443      107.57592       62.59087
C         16.20106      106.70760       61.73513
H         15.18495      107.13074       61.60429
H         16.68478      106.65228       60.73554
H         16.11549      105.67749       62.13748
H         17.11442      108.53683       62.27605
Ca        16.54816      113.07834       68.90161
O         18.33126      115.66075       67.95529
H         17.67979      116.04775       67.32183
H         18.48399      116.38292       68.61394
O         15.30159      114.28689       66.37954
H         15.95756      114.97387       66.12352
H         14.50225      114.51459       65.84470

Ca 1.0



