%chk=holoCaM-CaMKII.loop2.water2.frame461.chk
%nprocshared=20
%mem=10GB
%nosave
#b3lyp/svp scf=(tight,noincore,xqc) Test 
#IOP(5/87=12) Density=Current Pop=(MK,readradii) iop(6/33=2) iop(6/42=6)

holoCaM-CaMKII.loop2.water2.frame461 

   -2  1 
C         76.14895       69.39040       49.91320
C         77.45625       69.47564       50.64850
O         78.23651       68.53690       50.61691
H         75.30525       69.53595       50.61947
H         76.11215       70.19514       49.14571
H         76.03568       68.41257       49.40077
N         77.76740       70.61898       51.30977
C         79.05455       70.87918       51.94181
C         79.36807       69.97099       53.12470
O         78.59390       69.93014       54.07068
C         79.08363       72.34211       52.42093
C         80.40816       72.67807       53.01568
O         81.41563       72.52862       52.35015
O         80.49447       73.10461       54.28989
H         77.06799       71.37881       51.29207
H         79.84655       70.76621       51.16861
H         78.28415       72.51859       53.17261
H         78.90914       73.01703       51.55676
N         80.56001       69.30045       53.16695
C         81.03664       68.54973       54.32572
C         82.38707       69.06099       54.85952
O         82.83077       68.52656       55.86680
C         81.17615       67.07363       53.93434
H         81.17386       69.34730       52.34339
H         80.29965       68.61814       55.15492
H         81.49847       66.46309       54.80520
H         80.20163       66.67969       53.57584
H         81.92667       66.95649       53.12207
N         83.12920       70.02281       54.22189
C         84.50189       70.37623       54.61204
C         84.79527       71.88717       54.66503
O         85.91294       72.23927       55.01780
C         85.48179       69.65446       53.65817
C         85.11992       69.80817       52.20368
O         84.88328       68.82073       51.52654
O         85.00904       71.02276       51.64907
H         82.77951       70.41945       53.34153
H         84.72719       69.99790       55.63407
H         85.45493       68.56762       53.89317
H         86.52112       70.00459       53.83907
N         83.86385       72.83476       54.36537
C         84.08289       74.27680       54.46939
C         85.08705       74.89525       53.49835
O         85.29216       76.09668       53.60039
H         82.92269       72.52610       54.12891
H         84.40435       74.50927       55.50848
H         83.11330       74.79285       54.29723
N         85.76968       74.17560       52.56135
C         86.82738       74.75665       51.72632
C         86.36518       75.78996       50.68816
O         87.23135       76.39292       50.06934
C         87.66897       73.63988       51.06055
C         86.94267       72.75658       50.07674
N         87.61425       71.75469       49.46720
O         85.75958       72.92628       49.82965
H         85.60746       73.16641       52.51129
H         87.52588       75.28259       52.41456
H         88.07398       72.98583       51.86364
H         88.53046       74.10165       50.53264
H         88.61053       71.58897       49.66726
H         87.14245       71.14083       48.79404
N         85.05148       76.04203       50.41934
C         84.59629       77.06667       49.48279
C         84.12505       76.52802       48.13772
O         83.63301       77.32066       47.34876
H         84.33212       75.51140       50.91562
H         85.40054       77.80472       49.27370
H         83.77087       77.62868       49.97100
N         84.30573       75.22624       47.77228
C         83.95962       74.68064       46.45587
C         83.06452       73.45329       46.57992
O         82.75364       73.02906       47.67956
C         85.27083       74.29783       45.70021
C         86.00760       75.53850       45.19758
O         86.13363       73.55038       46.52056
H         84.77037       74.59453       48.43165
H         83.39988       75.41869       45.84080
H         85.05708       73.71932       44.77538
H         85.71084       72.66433       46.66024
H         86.29894       76.20424       46.03441
H         86.92021       75.23114       44.64193
H         85.35491       76.09905       44.49233
N         82.67318       72.80166       45.44446
C         81.99866       71.50912       45.40502
C         83.04516       70.48449       45.00528
O         83.78112       70.70825       44.05514
C         80.79596       71.53320       44.41295
C         79.67929       72.45333       44.97044
C         80.25741       70.10399       44.16686
C         78.47672       72.61094       44.03528
H         82.97011       73.18585       44.53603
H         81.60544       71.21982       46.40248
H         81.14889       71.92770       43.43404
H         80.09757       73.46678       45.14840
H         79.31692       72.05257       45.94310
H         81.04686       69.45357       43.73680
H         79.89345       69.64811       45.11158
H         79.44175       70.09849       43.41799
H         77.95267       71.64733       43.87288
H         77.74232       73.30542       44.49445
H         78.79980       73.02607       43.05790
N         83.13597       69.31198       45.69257
C         84.13447       68.28896       45.42645
C         83.46687       67.08169       44.78550
O         82.26824       67.09976       44.57470
C         84.85419       67.91221       46.74592
C         85.69801       69.03723       47.30200
O         85.15773       70.15665       47.83153
O         86.91304       68.92231       47.29503
H         82.43191       69.10380       46.41388
H         84.89137       68.64857       44.69637
H         85.54741       67.07429       46.52890
H         84.12991       67.55698       47.51324
N         84.20786       66.00193       44.40395
C         83.62790       64.81592       43.77663
C         82.60520       64.13539       44.69937
O         81.48229       63.94465       44.24680
C         84.75135       63.83567       43.35330
C         84.34175       62.63141       42.51920
C         83.05361       62.45028       41.96895
C         85.31769       61.64892       42.27353
C         82.75686       61.31352       41.21171
C         85.01424       60.51150       41.51964
C         83.73408       60.34305       40.99054
H         85.22690       66.03283       44.54976
H         83.12797       65.14698       42.83931
H         85.26215       63.47234       44.26197
H         85.50998       64.39031       42.75854
H         82.26907       63.17591       42.09650
H         86.31690       61.76060       42.67643
H         81.76625       61.18710       40.79346
H         85.77317       59.76003       41.34600
H         83.50000       59.46318       40.40554
N         82.86273       63.76031       45.99749
C         81.90362       63.06077       46.85250
C         80.68666       63.88733       47.26575
O         79.88446       63.37020       48.02900
C         82.74756       62.64036       48.06378
C         83.74403       63.76951       48.16301
C         84.11741       63.96930       46.70125
H         81.52405       62.13736       46.36179
H         82.18149       62.40928       48.99125
H         83.33206       61.73390       47.78348
H         83.20033       64.67427       48.51772
H         84.61148       63.58892       48.83289
H         84.53003       64.98619       46.60590
H         84.84974       63.20132       46.37742
N         80.45334       65.14131       46.78696
C         79.28187       65.93778       47.13130
C         78.42283       66.08284       45.89059
O         77.27256       65.66626       45.92112
C         79.74261       67.28351       47.72198
C         80.57802       67.02449       48.99061
C         81.23929       68.24194       49.54413
O         82.08435       68.10530       50.41326
O         81.04773       69.45583       49.00561
H         81.12348       65.57015       46.14392
H         78.66200       65.43193       47.90483
H         78.86803       67.92392       47.96821
H         80.36627       67.81528       46.96934
H         81.41388       66.34472       48.72515
H         79.96373       66.53558       49.77599
N         78.92857       66.59738       44.73705
C         78.17144       66.62502       43.50522
H         77.26204       67.24822       43.62492
H         78.79574       67.04343       42.68668
H         77.88079       65.58917       43.22275
H         79.89343       66.94380       44.71380
Ca        83.01555       70.33529       48.45273
O         82.54374       73.98754       50.39368
H         83.20022       73.60210       51.02901
H         82.03269       74.64690       50.92862
O         80.37181       72.48690       49.18801
H         79.64986       73.16304       49.20433
H         80.24516       72.00958       48.33111

Ca 1.0



