%chk=holoCaM.loop2.water2.frame34.chk
%nprocshared=20
%mem=10GB
%nosave
#b3lyp/svp scf=(tight,noincore,xqc) Test 
#IOP(5/87=12) Density=Current Pop=(MK,readradii) iop(6/33=2) iop(6/42=6)

holoCaM.loop2.water2.frame34 

   -2  1 
C         77.12490      106.77173        4.45966
C         76.28266      107.08296        3.25738
O         76.10467      106.22991        2.40113
H         77.98613      107.47308        4.49666
H         76.51904      106.90096        5.38193
H         77.50986      105.73176        4.42221
N         75.74224      108.32241        3.13282
C         74.91012      108.75386        2.01472
C         75.64467      108.60921        0.68465
O         76.72437      109.16430        0.53714
C         74.51845      110.22516        2.24728
C         73.75752      110.79200        1.09910
O         72.56706      110.28157        0.75619
O         74.22830      111.71922        0.46470
H         75.94267      108.99975        3.88675
H         73.97916      108.14263        1.99176
H         75.44283      110.82790        2.38552
H         73.90393      110.31428        3.17025
N         75.08233      107.89516       -0.33780
C         75.70543      107.70297       -1.64486
C         74.89649      108.30461       -2.79713
O         75.38669      108.25890       -3.91703
C         75.91473      106.20494       -1.87782
H         74.16721      107.45894       -0.17935
H         76.70100      108.19625       -1.66393
H         76.53529      105.77931       -1.06080
H         74.93757      105.67553       -1.89799
H         76.43692      106.02850       -2.84218
N         73.68375      108.90752       -2.61245
C         72.94454      109.59591       -3.67633
C         72.84171      111.08851       -3.38021
O         72.11213      111.78041       -4.07724
C         71.57989      108.91181       -3.95094
C         70.63237      108.84396       -2.78707
O         69.63362      108.14702       -2.86441
O         70.91870      109.47534       -1.63806
H         73.27971      108.93096       -1.66802
H         73.48641      109.52576       -4.64538
H         71.80780      107.86578       -4.25261
H         71.06646      109.40003       -4.80905
N         73.65675      111.67722       -2.45245
C         73.75358      113.11628       -2.28783
C         72.58548      113.77796       -1.58700
O         72.55329      114.99968       -1.62360
H         74.34703      111.10677       -1.94593
H         73.89010      113.56702       -3.29521
H         74.66687      113.36513       -1.70383
N         71.63302      113.09061       -0.88178
C         70.50022      113.76710       -0.23810
C         70.62088      113.85109        1.29053
O         69.68876      114.32099        1.92739
C         69.16855      113.16586       -0.73903
C         68.70683      111.93229       -0.00874
N         67.46754      111.89348        0.53870
O         69.43714      110.96217        0.08019
H         71.71115      112.06878       -0.79258
H         70.46939      114.82222       -0.58386
H         69.26159      112.94969       -1.82658
H         68.37535      113.93536       -0.63047
H         66.82847      112.69836        0.46398
H         67.12723      111.04992        1.01961
N         71.78062      113.52039        1.93252
C         72.03325      113.74838        3.35161
C         71.37633      112.77940        4.31828
O         71.61453      112.92881        5.50847
H         72.58328      113.22088        1.37184
H         71.76210      114.79482        3.60885
H         73.12730      113.64010        3.52283
N         70.57642      111.75700        3.91032
C         70.00330      110.76008        4.82072
C         70.47616      109.36273        4.44886
O         71.23096      109.20081        3.49917
C         68.44590      110.86666        4.85405
C         67.99442      111.85320        5.93164
O         67.91692      111.27717        3.62260
H         70.38038      111.65378        2.90458
H         70.37805      110.89125        5.86075
H         67.97804      109.90270        5.14872
H         68.30261      110.68503        2.93428
H         68.32930      111.49211        6.93018
H         68.40868      112.86583        5.75313
H         66.88448      111.90552        5.95177
N         70.09617      108.30155        5.21973
C         70.58226      106.94035        5.04532
C         69.42986      106.03445        4.62694
O         68.43464      105.93563        5.33123
C         71.26942      106.46226        6.36626
C         72.52471      107.33499        6.64787
C         71.65153      104.96980        6.29161
C         73.20479      107.04573        7.98930
H         69.45169      108.46612        6.00846
H         71.35560      106.89945        4.24653
H         70.54635      106.58252        7.20425
H         72.23208      108.40606        6.66594
H         73.26793      107.19531        5.83126
H         72.09529      104.61441        7.24250
H         70.75009      104.34431        6.13551
H         72.36944      104.79086        5.46468
H         72.49257      107.21163        8.82488
H         73.60094      106.01206        8.04003
H         74.06718      107.73385        8.11812
N         69.56351      105.28381        3.49729
C         68.64256      104.25282        3.04246
C         69.19636      102.89924        3.44773
O         70.24050      102.84239        4.07750
C         68.53314      104.28986        1.49889
C         67.97642      105.57198        0.97165
O         66.72496      105.94799        1.29510
O         68.63735      106.25500        0.20677
H         70.44796      105.34727        2.99322
H         67.64217      104.37393        3.51317
H         67.86584      103.48253        1.13628
H         69.54462      104.11887        1.06198
N         68.54331      101.75245        3.12749
C         69.04453      100.43518        3.49174
C         70.41059      100.12183        2.86718
O         71.30519       99.80490        3.63848
C         67.99384       99.35636        3.16502
C         68.41981       97.97668        3.61077
C         68.72530       97.71669        4.96078
C         68.50437       96.93054        2.67733
C         69.11533       96.43646        5.36260
C         68.88719       95.64966        3.08588
C         69.19446       95.40319        4.42646
H         67.64179      101.82025        2.63043
H         69.16458      100.42473        4.59810
H         67.76877       99.36468        2.07995
H         67.05179       99.61221        3.69736
H         68.66511       98.49989        5.70525
H         68.26897       97.10375        1.63471
H         69.35358       96.24542        6.40119
H         68.94457       94.84747        2.36219
H         69.49186       94.41131        4.74045
N         70.68631      100.17296        1.52035
C         71.98479       99.79580        0.96418
C         73.09864      100.75599        1.34950
O         74.25901      100.41715        1.16194
C         71.73630       99.77745       -0.54863
C         70.69289      100.86554       -0.70775
C         69.77049      100.59155        0.47957
H         72.27305       98.77731        1.30491
H         72.64262       99.87554       -1.18507
H         71.22742       98.82201       -0.80777
H         71.20042      101.84344       -0.54193
H         70.17757      100.90402       -1.69074
H         69.23072      101.52896        0.70991
H         69.06412       99.76285        0.26538
N         72.82243      101.97957        1.86542
C         73.83851      102.92988        2.29580
C         74.36298      102.49413        3.64708
O         75.56010      102.28183        3.78035
C         73.21776      104.34456        2.26057
C         72.97010      104.68808        0.77137
C         72.16161      105.89991        0.44275
O         71.51461      106.63730        1.35923
O         72.03814      106.19807       -0.73533
H         71.83624      102.27210        1.92917
H         74.69263      102.94858        1.57923
H         73.88918      105.10662        2.70416
H         72.29064      104.32840        2.85510
H         72.44433      103.85617        0.26051
H         73.96817      104.80654        0.29530
N         73.50951      102.27055        4.68126
C         73.94760      101.74928        5.95602
H         74.66443      102.44871        6.43212
H         73.07193      101.61398        6.62705
H         74.42871      100.75787        5.80928
H         72.50702      102.43439        4.54927
Ca        70.66956      108.44458        0.34592
O         67.84815      108.47143        2.11237
H         68.01760      107.79907        2.81693
H         66.92486      108.78518        2.28505
O         67.44652      108.89686       -0.70801
H         67.05334      108.03711       -0.99922
H         67.68148      109.36353       -1.54817

Ca 1.0



