%chk=holoCaM-CaMKII.loop2.water2.frame498.chk
%nprocshared=20
%mem=10GB
%nosave
#b3lyp/svp scf=(tight,noincore,xqc) Test 
#IOP(5/87=12) Density=Current Pop=(MK,readradii) iop(6/33=2) iop(6/42=6)

holoCaM-CaMKII.loop2.water2.frame498 

   -2  1 
C         -5.40643      -23.01485      106.62285
C         -6.67211      -23.17456      107.41785
O         -6.61622      -23.13068      108.63823
H         -4.68509      -23.81444      106.88580
H         -5.60446      -23.05874      105.53025
H         -4.95407      -22.02492      106.84820
N         -7.86722      -23.31489      106.78205
C         -9.14254      -23.33871      107.48440
C         -9.35141      -24.60538      108.30650
O         -9.29942      -25.69860      107.76148
C        -10.29802      -23.16825      106.48294
C        -11.59357      -23.01701      107.21815
O        -11.70546      -22.05869      108.15108
O        -12.52848      -23.77058      107.00417
H         -7.87361      -23.30988      105.74991
H         -9.17214      -22.44332      108.14614
H        -10.34305      -24.02258      105.77321
H        -10.13033      -22.23720      105.89992
N         -9.67098      -24.49948      109.62734
C         -9.99150      -25.61025      110.51316
C        -11.39490      -25.47125      111.11708
O        -11.77367      -26.33609      111.89489
C         -8.95811      -25.62908      111.64771
H         -9.71777      -23.56261      110.03368
H         -9.93626      -26.57639      109.96718
H         -9.00112      -24.67931      112.22671
H         -9.14686      -26.47461      112.34281
H         -7.93442      -25.73967      111.23162
N        -12.19753      -24.39441      110.85387
C        -13.47193      -24.13450      111.51811
C        -14.61258      -23.94453      110.52053
O        -15.58166      -24.68507      110.61652
C        -13.31588      -22.95130      112.51564
C        -12.38901      -21.84597      112.06877
O        -11.34775      -21.66204      112.68053
O        -12.63290      -21.09638      110.98397
H        -11.87270      -23.66748      110.20680
H        -13.77408      -24.99811      112.15364
H        -12.83722      -23.37755      113.42649
H        -14.30723      -22.55946      112.82890
N        -14.59486      -22.97545      109.56170
C        -15.70225      -22.71144      108.65124
C        -16.26922      -21.30714      108.81326
O        -17.18592      -20.96892      108.07811
H        -13.76643      -22.38648      109.46063
H        -16.53453      -23.43052      108.80451
H        -15.33517      -22.83337      107.60965
N        -15.79495      -20.43848      109.75596
C        -16.31511      -19.08688      109.98213
C        -16.04652      -18.08757      108.84326
O        -16.39746      -16.92712      109.00805
C        -15.78673      -18.55257      111.34033
C        -14.29245      -18.37442      111.44974
N        -13.75267      -17.99600      112.62909
O        -13.56287      -18.58015      110.49403
H        -15.06853      -20.77262      110.40040
H        -17.41748      -19.15707      110.11356
H        -16.09379      -19.27793      112.12622
H        -16.27182      -17.58086      111.57469
H        -14.34773      -17.82906      113.45327
H        -12.73611      -17.88353      112.72300
N        -15.48756      -18.45265      107.65148
C        -15.30294      -17.54185      106.53110
C        -14.12919      -16.58724      106.65575
O        -13.93202      -15.82855      105.71678
H        -15.26979      -19.43528      107.46867
H        -16.24729      -16.98301      106.34868
H        -15.09988      -18.14876      105.62207
N        -13.29968      -16.55761      107.74070
C        -12.15822      -15.64798      107.85065
C        -10.85231      -16.39774      108.11145
O        -10.85894      -17.60808      108.27755
C        -12.41302      -14.63150      108.99798
C        -13.66772      -13.79449      108.74730
O        -12.54761      -15.28665      110.23479
H        -13.48999      -17.17888      108.53376
H        -12.02311      -15.07161      106.90945
H        -11.57339      -13.90265      109.04900
H        -11.63635      -15.54943      110.52832
H        -13.74726      -13.00278      109.52277
H        -13.61479      -13.30577      107.75120
H        -14.57884      -14.42735      108.79539
N         -9.69406      -15.68988      108.24298
C         -8.43164      -16.23315      108.73129
C         -8.25218      -15.69795      110.13827
O         -8.39556      -14.50219      110.35778
C         -7.23928      -15.84299      107.80187
C         -7.35449      -16.60651      106.45710
C         -5.88324      -16.14772      108.48408
C         -6.26879      -16.24652      105.43756
H         -9.72973      -14.66880      108.10392
H         -8.45894      -17.34431      108.79720
H         -7.27531      -14.74654      107.61605
H         -8.33825      -16.38213      105.99357
H         -7.30209      -17.70155      106.64683
H         -5.78243      -17.23060      108.70517
H         -5.02802      -15.82104      107.86139
H         -5.78027      -15.57729      109.42972
H         -6.43959      -16.81766      104.50102
H         -6.29974      -15.16141      105.20706
H         -5.25615      -16.51877      105.79871
N         -7.89323      -16.54643      111.13812
C         -7.71832      -16.14471      112.52353
C         -6.24432      -16.07248      112.84027
O         -5.42697      -16.36588      111.97682
C         -8.41462      -17.16439      113.45122
C         -9.88912      -17.26732      113.19921
O        -10.30595      -17.63113      112.11164
O        -10.75929      -16.99055      114.18867
H         -7.66666      -17.51856      110.89710
H         -8.14017      -15.13038      112.69540
H         -8.26361      -16.87153      114.51127
H         -7.96425      -18.17099      113.30352
N         -5.82144      -15.64551      114.06173
C         -4.41059      -15.55690      114.39182
C         -3.75695      -16.93468      114.36170
O         -2.71525      -17.03809      113.73206
C         -4.16312      -14.84326      115.73816
C         -2.68313      -14.62121      115.94116
C         -1.97505      -13.74919      115.09297
C         -1.99374      -15.29625      116.96121
C         -0.60175      -13.56058      115.26190
C         -0.61753      -15.10917      117.12225
C          0.07755      -14.24233      116.27393
H         -6.52009      -15.34968      114.76058
H         -3.93246      -14.91270      113.61929
H         -4.57753      -15.42719      116.57658
H         -4.67264      -13.85522      115.75035
H         -2.48528      -13.21400      114.30143
H         -2.51683      -15.97849      117.61964
H         -0.06470      -12.88819      114.60517
H         -0.08893      -15.63999      117.90266
H          1.14259      -14.09944      116.39948
N         -4.27209      -18.04544      114.99030
C         -3.62563      -19.35208      114.94951
C         -3.47287      -19.93562      113.55551
O         -2.74120      -20.90543      113.41295
C         -4.58218      -20.26382      115.72948
C         -5.22658      -19.30058      116.69625
C         -5.47281      -18.09416      115.79870
H         -2.64007      -19.23744      115.45515
H         -5.40551      -20.59930      115.05309
H         -4.10887      -21.16569      116.17199
H         -6.13558      -19.68671      117.20440
H         -4.46707      -19.02378      117.46194
H         -6.33847      -18.27093      115.12692
H         -5.65603      -17.21598      116.43611
N         -4.17859      -19.44039      112.49518
C         -4.14972      -20.03691      111.16481
C         -3.24123      -19.25763      110.23665
O         -2.94173      -19.75283      109.15911
C         -5.57153      -20.08703      110.56329
C         -6.57145      -20.72624      111.52645
C         -7.95095      -20.77924      110.96040
O         -8.52284      -21.84774      110.91156
O         -8.61240      -19.66720      110.59307
H         -4.80644      -18.64066      112.63983
H         -3.74960      -21.07261      111.24196
H         -5.54961      -20.64501      109.60087
H         -5.91217      -19.04944      110.35535
H         -6.63388      -20.13207      112.46096
H         -6.23615      -21.75458      111.78299
N         -2.77211      -18.02467      110.57473
C         -1.88408      -17.26821      109.72792
H         -0.92748      -17.81772      109.60689
H         -2.35722      -17.09746      108.73922
H         -1.67258      -16.28411      110.19957
H         -3.06241      -17.58375      111.45193
Ca       -10.80639      -20.00516      110.26860
O        -12.69793      -19.58717      107.65516
H        -13.31608      -20.26073      108.03370
H        -12.72038      -19.74307      106.67832
O         -9.43874      -19.88174      107.18795
H         -8.57188      -19.65538      107.60848
H         -9.26515      -19.83260      106.21465

Ca 1.0



