%chk=holoCaM-CaMKII.loop2.water2.frame391.chk
%nprocshared=20
%mem=10GB
%nosave
#b3lyp/svp scf=(tight,noincore,xqc) Test 
#IOP(5/87=12) Density=Current Pop=(MK,readradii) iop(6/33=2) iop(6/42=6)

holoCaM-CaMKII.loop2.water2.frame391 

   -2  1 
C         45.78494       86.28823      -26.98885
C         45.20479       85.04625      -27.60783
O         45.94128       84.10745      -27.86788
H         46.56105       86.73648      -27.63988
H         45.00051       87.05069      -26.78816
H         46.23737       86.01166      -26.01206
N         43.86389       84.94918      -27.79768
C         43.18893       83.71176      -28.17018
C         43.45993       83.24202      -29.60454
O         43.49839       84.05020      -30.52198
C         41.68177       83.88508      -27.94483
C         40.95384       82.63815      -28.30858
O         41.18398       81.43379      -27.71292
O         40.21150       82.70049      -29.27437
H         43.28295       85.76556      -27.54569
H         43.50783       82.91783      -27.46222
H         41.32339       84.71535      -28.59822
H         41.46249       84.15363      -26.89426
N         43.56292       81.89742      -29.84745
C         43.74234       81.28004      -31.15751
C         42.73340       80.14324      -31.45847
O         42.79117       79.62310      -32.56457
C         45.17286       80.73413      -31.21286
H         43.53775       81.27119      -29.03973
H         43.64251       82.04760      -31.95589
H         45.32780       79.96892      -30.42097
H         45.39818       80.28612      -32.20275
H         45.89007       81.56607      -31.03696
N         41.83474       79.66182      -30.53651
C         40.94963       78.50640      -30.77017
C         39.50694       78.67142      -30.23170
O         38.70203       77.77812      -30.45654
C         41.62307       77.23151      -30.21732
C         42.12434       77.38325      -28.80698
O         41.28270       77.69885      -27.81134
O         43.31168       77.23560      -28.56334
H         41.87208       80.02964      -29.58373
H         40.82908       78.33875      -31.86400
H         42.49825       76.99644      -30.86299
H         40.92326       76.37046      -30.28563
N         39.09171       79.79033      -29.57455
C         37.71380       80.08221      -29.18184
C         37.15246       79.27061      -28.02798
O         35.96810       79.41067      -27.75721
H         39.76889       80.52262      -29.43404
H         37.06537       79.95563      -30.07464
H         37.64519       81.14786      -28.86965
N         37.91328       78.40969      -27.30247
C         37.36219       77.53588      -26.26294
C         36.80987       78.23925      -25.00995
O         36.24168       77.54276      -24.18000
C         38.40668       76.46054      -25.87788
C         39.70713       76.98548      -25.33677
N         40.67489       76.12305      -24.97308
O         39.91152       78.18157      -25.24470
H         38.90400       78.31808      -27.55536
H         36.51170       76.98453      -26.71718
H         38.65553       75.87421      -26.78785
H         37.96776       75.77010      -25.12756
H         40.54825       75.10629      -25.06081
H         41.55372       76.48364      -24.59810
N         36.95494       79.57580      -24.77598
C         36.48000       80.24525      -23.56330
C         37.59579       80.50983      -22.56499
O         37.31670       81.05670      -21.50694
H         37.47531       80.13472      -25.45398
H         35.73329       79.61626      -23.03090
H         35.97138       81.19223      -23.84241
N         38.85891       80.05257      -22.79128
C         39.93001       80.04628      -21.81218
C         41.26625       80.53918      -22.45865
O         41.71888       79.65402      -23.45659
C         40.01516       78.61110      -21.19834
C         38.83125       78.33464      -20.25776
O         39.99342       77.63022      -22.20385
H         39.04584       79.55404      -23.65725
H         39.70398       80.74879      -20.97892
H         40.92641       78.49943      -20.56810
H         40.91404       77.53946      -22.55003
H         38.89735       77.30196      -19.85229
H         38.84611       79.04206      -19.40097
H         37.85791       78.42742      -20.78313
N         42.28150       80.67713      -21.40571
C         43.65565       80.95768      -21.86740
C         44.41205       79.66332      -21.71899
O         44.36364       79.05714      -20.65648
C         44.32852       82.10588      -21.05655
C         43.55489       83.43763      -21.25525
C         45.80199       82.30729      -21.49581
C         43.86524       84.45515      -20.15958
H         41.95768       81.27794      -20.61398
H         43.66924       81.27694      -22.92895
H         44.30141       81.81150      -19.98410
H         42.46067       83.28174      -21.20542
H         43.77055       83.85906      -22.26279
H         46.30213       83.10412      -20.91058
H         46.39904       81.38557      -21.35129
H         45.85355       82.58576      -22.57227
H         44.93949       84.71917      -20.12205
H         43.27768       85.37953      -20.33905
H         43.55838       84.03492      -19.17654
N         45.15731       79.19365      -22.74998
C         45.88581       77.94057      -22.70417
C         47.34477       78.22400      -22.48540
O         47.71804       79.37969      -22.39025
C         45.68411       77.16960      -24.02069
C         44.24838       76.91551      -24.31862
O         43.50055       77.84954      -24.55729
O         43.79155       75.65055      -24.36896
H         45.26540       79.77654      -23.58654
H         45.54003       77.31736      -21.85028
H         46.19928       76.18989      -23.95237
H         46.10837       77.74384      -24.87515
N         48.23157       77.20586      -22.34696
C         49.64571       77.43117      -22.10982
C         50.35398       78.10992      -23.28741
O         51.13242       79.01346      -23.01575
C         50.34918       76.11882      -21.72494
C         51.70325       76.39482      -21.11707
C         51.79579       77.11649      -19.90970
C         52.87713       75.93774      -21.73288
C         53.03953       77.38114      -19.33645
C         54.12253       76.20507      -21.15363
C         54.20332       76.92634      -19.95797
H         47.87670       76.23744      -22.36336
H         49.70983       78.09745      -21.22134
H         50.41444       75.45723      -22.61387
H         49.75218       75.58858      -20.95092
H         50.90524       77.47361      -19.40660
H         52.82874       75.38078      -22.65977
H         53.09801       77.93784      -18.40950
H         55.02630       75.85319      -21.63185
H         55.16663       77.13209      -19.51085
N         50.17348       77.76476      -24.60925
C         50.86996       78.42978      -25.70540
C         50.35970       79.85112      -25.94068
O         50.98388       80.58109      -26.69741
C         50.62148       77.50128      -26.89837
C         49.22715       76.99047      -26.61094
C         49.28562       76.73270      -25.10651
H         51.96326       78.47242      -25.50409
H         50.77558       77.95402      -27.90112
H         51.29831       76.62258      -26.79968
H         48.52514       77.83551      -26.80005
H         48.88931       76.11668      -27.20756
H         48.25642       76.82325      -24.73766
H         49.70821       75.73991      -24.85277
N         49.26159       80.31915      -25.28541
C         48.79385       81.69928      -25.31772
C         49.31005       82.43187      -24.08448
O         49.46778       83.64306      -24.13648
C         47.25041       81.69777      -25.32058
C         46.69486       81.00819      -26.58003
C         45.22622       80.71560      -26.50202
O         44.69330       80.09087      -27.40077
O         44.49822       81.07195      -25.43409
H         48.74419       79.67694      -24.67426
H         49.17293       82.22816      -26.22119
H         46.84133       82.72956      -25.24491
H         46.92367       81.13918      -24.41694
H         47.19012       80.02698      -26.71871
H         46.90457       81.64140      -27.46829
N         49.60813       81.75340      -22.94043
C         50.10406       82.37052      -21.73548
H         51.07707       82.86317      -21.93393
H         49.36406       83.10061      -21.35039
H         50.25896       81.58520      -20.96065
H         49.48141       80.74471      -22.90337
Ca        41.46432       80.50434      -25.61240
O         39.16032       81.71522      -25.37458
H         38.79018       81.90044      -26.27272
H         39.67815       82.51841      -25.13425
O         42.06696       82.90982      -24.54214
H         42.01949       83.89393      -24.57120
H         43.03162       82.71463      -24.57702

Ca 1.0



