%chk=holoCaM.loop2.water1.frame392.chk
%nprocshared=20
%mem=10GB
%nosave
#b3lyp/svp scf=(tight,noincore,xqc) Test 
#IOP(5/87=12) Density=Current Pop=(MK,readradii) iop(6/33=2) iop(6/42=6)

holoCaM.loop2.water1.frame392 

   -2  1 
C        108.01769       56.40835       98.30191
C        108.30857       57.85066       98.58601
O        107.76707       58.72012       97.91777
H        107.30069       56.30583       97.46065
H        108.95780       55.87536       98.05174
H        107.56839       55.94542       99.20738
N        109.13588       58.17488       99.61496
C        109.37576       59.54813      100.03457
C        110.16496       60.30741       98.96004
O        111.31346       59.96722       98.71227
C        110.10072       59.51679      101.40080
C        110.15177       60.82677      102.11067
O        110.73084       60.90853      103.18079
O        109.55691       61.90955      101.59632
H        109.54246       57.40181      100.16600
H        108.37754       60.01276      100.19458
H        111.13259       59.12795      101.26082
H        109.55548       58.82818      102.08272
N        109.57365       61.30009       98.23052
C        110.21270       61.97152       97.09739
C        111.37777       62.87603       97.47260
O        112.17340       63.16180       96.58811
C        109.18521       62.77994       96.29326
H        108.58779       61.49784       98.41673
H        110.59932       61.17518       96.42293
H        109.65762       63.23423       95.39552
H        108.36525       62.11328       95.94989
H        108.74876       63.58996       96.91611
N        111.54242       63.38621       98.72847
C        112.71614       64.17732       99.11576
C        113.53236       63.46575      100.18869
O        114.62609       63.93086      100.47593
C        112.32082       65.62739       99.50261
C        111.27265       65.67225      100.57013
O        110.14667       66.06539      100.30881
O        111.53593       65.18932      101.78995
H        110.82043       63.19479       99.43880
H        113.41110       64.27208       98.25387
H        111.90946       66.11672       98.59360
H        113.21163       66.20845       99.82790
N        113.10280       62.31763      100.79439
C        113.90732       61.55951      101.73582
C        114.32310       62.38988      102.92167
O        115.51276       62.51823      103.17108
H        112.17808       61.92867      100.57530
H        114.80487       61.16531      101.21344
H        113.31712       60.68760      102.09724
N        113.38204       62.97563      103.70581
C        113.68040       63.76945      104.89187
C        113.13173       63.07211      106.13162
O        113.07066       63.68830      107.18674
C        113.07475       65.17892      104.71129
C        113.69020       65.95916      103.56663
N        113.21421       67.18604      103.25452
O        114.61241       65.49318      102.91386
H        112.38898       62.83814      103.46479
H        114.77392       63.89300      105.05450
H        113.23042       65.77643      105.63490
H        111.98280       65.07884      104.53853
H        112.43164       67.59660      103.78374
H        113.61926       67.71979      102.47061
N        112.78989       61.75045      106.09478
C        112.31260       61.00108      107.24024
C        110.84164       61.19705      107.52354
O        110.33288       60.45491      108.35248
H        112.94568       61.20485      105.23536
H        112.94670       61.18535      108.13444
H        112.41191       59.92253      106.98646
N        110.07715       62.12678      106.87576
C        108.62622       62.19567      107.03046
C        107.95364       62.09333      105.66753
O        108.63029       62.13735      104.65029
C        108.21006       63.47274      107.79572
C        108.79809       63.47356      109.21461
O        108.63911       64.61342      107.10147
H        110.51797       62.79585      106.22846
H        108.26492       61.32521      107.62114
H        107.09895       63.48114      107.88010
H        108.17464       65.39059      107.50999
H        108.45546       64.37205      109.76967
H        108.46093       62.57240      109.77059
H        109.90838       63.48322      109.18413
N        106.60936       61.90204      105.58320
C        105.87919       61.74095      104.32891
C        104.83039       62.83396      104.22111
O        104.09785       63.07663      105.17054
C        105.29414       60.29656      104.23408
C        106.47249       59.30214      104.01454
C        104.27384       60.17385      103.08548
C        106.06521       57.83057      103.92277
H        106.07035       61.82864      106.46015
H        106.55203       61.85590      103.45369
H        104.75549       60.05793      105.17737
H        107.19502       59.39696      104.85215
H        107.00611       59.56344      103.07162
H        103.42532       60.86790      103.24318
H        104.75679       60.38922      102.11406
H        103.82111       59.16387      103.04785
H        105.54997       57.51384      104.85227
H        105.41152       57.64012      103.04730
H        106.97578       57.20938      103.78462
N        104.68170       63.49982      103.04020
C        103.71629       64.56291      102.80681
C        102.46526       63.98846      102.16385
O        102.41794       62.79674      101.90997
C        104.34467       65.63095      101.87753
C        105.62906       66.20801      102.41079
O        106.60520       65.49497      102.58405
O        105.72376       67.52891      102.65253
H        105.23274       63.18828      102.23111
H        103.42288       65.03086      103.77233
H        103.62345       66.46069      101.72617
H        104.55998       65.17672      100.88357
N        101.39274       64.77791      101.88649
C        100.17450       64.27104      101.26202
C        100.41503       63.68757       99.86484
O        100.02617       62.54496       99.66906
C         99.08877       65.36562      101.20894
C         97.82330       64.85769      100.55246
C         97.10759       63.77774      101.10277
C         97.36063       65.45127       99.36575
C         95.95551       63.29989      100.47089
C         96.20734       64.97123       98.73913
C         95.50615       63.89573       99.28991
H        101.43851       65.77545      102.14692
H         99.77265       63.45998      101.91071
H         99.47825       66.24413      100.65698
H         98.85374       65.70416      102.24124
H         97.44173       63.30031      102.01504
H         97.89631       66.28018       98.92024
H         95.41248       62.46517      100.89535
H         95.85986       65.43140       97.82349
H         94.61545       63.52347       98.80078
N        101.01346       64.37289       98.83597
C        101.16085       63.83234       97.48661
C        101.96415       62.54690       97.47622
O        101.58486       61.62106       96.77174
C        101.81167       64.98238       96.70219
C        102.58148       65.73730       97.76156
C        101.61019       65.69219       98.93695
H        100.17921       63.61850       97.00761
H        102.38252       64.68541       95.79601
H        100.99831       65.67312       96.38302
H        103.48838       65.15011       98.01375
H        102.91189       66.75901       97.47804
H        102.19976       65.86218       99.85383
H        100.81167       66.45551       98.82112
N        103.04640       62.39499       98.27825
C        103.83957       61.17438       98.34403
C        102.96740       60.01041       98.78950
O        102.85645       59.03567       98.05915
C        105.01405       61.38981       99.31433
C        105.96312       62.49937       98.81571
C        107.00394       62.84874       99.83614
O        107.05171       62.20329      101.01308
O        107.81684       63.72765       99.59886
H        103.29124       63.17522       98.90147
H        104.26181       60.94584       97.33918
H        105.59130       60.44623       99.44006
H        104.59699       61.69082      100.29706
H        105.41292       63.43616       98.60561
H        106.44327       62.16913       97.86996
N        102.29034       60.06187       99.96794
C        101.40591       59.00865      100.41358
H        100.58376       58.87019       99.67943
H        101.96861       58.05988      100.53326
H        100.95764       59.28464      101.39295
H        102.38821       60.88770      100.56429
Ca       109.93960       63.87174      102.55653
O        109.05651       66.09188      104.44264
H        109.58537       66.92045      104.55723
H        109.61767       65.38421      104.84714

Ca 1.0



