%chk=holoCaM-CaMKII.loop2.water2.frame47.chk
%nprocshared=20
%mem=10GB
%nosave
#b3lyp/svp scf=(tight,noincore,xqc) Test 
#IOP(5/87=12) Density=Current Pop=(MK,readradii) iop(6/33=2) iop(6/42=6)

holoCaM-CaMKII.loop2.water2.frame47 

   -2  1 
C         19.68220       73.02892        9.68917
C         18.66602       74.12762        9.83077
O         18.11834       74.57953        8.83813
H         20.65499       73.35285       10.11386
H         19.33110       72.13255       10.24668
H         19.82417       72.74432        8.62545
N         18.34417       74.57971       11.07006
C         17.28570       75.54754       11.34420
C         17.58790       76.93602       10.78004
O         18.64571       77.46982       11.08442
C         17.11031       75.66563       12.87601
C         15.87163       76.41177       13.27204
O         15.61508       76.63802       14.57332
O         15.06916       76.77261       12.43020
H         18.83819       74.15061       11.86912
H         16.33733       75.14365       10.92386
H         18.00475       76.16197       13.31164
H         17.02577       74.65506       13.32614
N         16.67107       77.60696       10.01345
C         16.87555       78.97208        9.52111
C         15.82821       79.98308       10.02435
O         15.98200       81.15486        9.70809
C         16.86495       78.94832        7.98744
H         15.78911       77.13399        9.77333
H         17.86832       79.34954        9.84777
H         17.64895       78.25783        7.60972
H         15.87703       78.60236        7.61158
H         17.06719       79.96025        7.57505
N         14.72529       79.62284       10.75122
C         13.62596       80.54985       11.07291
C         13.01975       80.36463       12.47920
O         12.09703       81.10282       12.79719
C         12.53004       80.42557        9.98507
C         12.23056       78.98850        9.70025
O         12.44557       78.53664        8.58600
O         11.95116       78.14853       10.70719
H         14.56676       78.62480       10.92302
H         13.97989       81.60377       11.03896
H         12.91391       80.87883        9.04326
H         11.61372       80.98356       10.27158
N         13.48504       79.45818       13.38787
C         12.98032       79.34984       14.75765
C         11.57185       78.78720       14.93600
O         11.13522       78.71860       16.07640
H         14.29896       78.88706       13.14736
H         13.03310       80.35304       15.23279
H         13.65532       78.67494       15.32696
N         10.80222       78.35904       13.89646
C          9.43843       77.83373       14.04807
C          9.33739       76.45482       14.73010
O          8.22996       75.93951       14.80815
C          8.71755       77.84243       12.67621
C          9.30794       76.96626       11.60430
N          8.77258       76.99041       10.36476
O         10.27035       76.25123       11.83184
H         11.17615       78.46865       12.94956
H          8.85389       78.55250       14.66453
H          8.73335       78.88765       12.29625
H          7.65255       77.55295       12.81190
H          7.96906       77.59689       10.14632
H          9.17082       76.41341        9.61738
N         10.41024       75.81394       15.28621
C         10.31510       74.53601       15.98614
C         10.12645       73.32129       15.08819
O         10.01399       72.23014       15.62836
H         11.32439       76.27451       15.30224
H          9.49116       74.59205       16.73272
H         11.25823       74.36607       16.54812
N         10.07035       73.41818       13.72921
C          9.81242       72.29159       12.83456
C         10.83191       72.21088       11.70778
O         11.05310       73.20530       11.02919
C          8.40677       72.45076       12.20571
C          7.30642       72.24543       13.24649
O          8.24998       73.72226       11.62492
H         10.14849       74.34414       13.29891
H          9.81114       71.32119       13.37987
H          8.25148       71.65308       11.43975
H          8.60526       73.67391       10.70044
H          7.38586       71.22720       13.68590
H          7.37923       72.99764       14.05906
H          6.31247       72.33691       12.76033
N         11.39506       71.01111       11.36829
C         12.15070       70.82942       10.12851
C         11.23266       71.15513        8.95356
O         10.18491       70.53740        8.82057
C         12.73935       69.38095       10.00112
C         13.82185       69.15837       11.09457
C         13.34178       69.14886        8.59688
C         14.51999       67.79515       11.03499
H         11.19778       70.18532       11.95389
H         13.01283       71.52313       10.12071
H         11.92007       68.63838       10.12756
H         13.35303       69.25570       12.09568
H         14.60923       69.93848       11.00377
H         12.57284       69.27602        7.81095
H         14.18314       69.84413        8.40932
H         13.69878       68.10759        8.47362
H         15.23817       67.71241       11.87755
H         13.78124       66.97063       11.10600
H         15.11274       67.68525       10.10276
N         11.60165       72.09829        8.04072
C         10.83795       72.41402        6.83884
C         11.36353       71.61085        5.67036
O         12.28771       70.83575        5.84310
C         10.95440       73.91899        6.52166
C         10.37072       74.76351        7.60234
O          9.19090       74.65399        7.89393
O         11.13685       75.67400        8.22642
H         12.52484       72.53651        8.14220
H          9.76745       72.14066        6.97082
H         10.40598       74.16841        5.59131
H         12.02508       74.18706        6.37272
N         10.80100       71.73131        4.43844
C         11.25630       70.97528        3.28150
C         12.72335       71.25485        2.92782
O         13.46517       70.28658        2.84488
C         10.34839       71.24640        2.06615
C         10.73576       70.36854        0.90344
C         11.30497       70.92920       -0.25085
C         10.54477       68.97704        0.97243
C         11.68395       70.10838       -1.31663
C         10.91634       68.16148       -0.09910
C         11.48815       68.72631       -1.24191
H          9.99867       72.36953        4.32384
H         11.15158       69.89421        3.52853
H         10.41563       72.31474        1.78908
H          9.28469       71.04802        2.32193
H         11.46967       71.99745       -0.31891
H         10.10412       68.52502        1.85277
H         12.13194       70.54432       -2.19959
H         10.76284       67.09156       -0.04168
H         11.78040       68.09285       -2.06880
N         13.23728       72.50841        2.69038
C         14.62220       72.74231        2.28869
C         15.60595       72.31916        3.36402
O         16.69280       71.87258        3.02346
C         14.66171       74.24743        1.98920
C         13.62451       74.80548        2.93564
C         12.51600       73.76171        2.82479
H         14.88225       72.20611        1.34893
H         15.66725       74.71905        2.02815
H         14.24907       74.40204        0.96574
H         14.05181       74.77628        3.96137
H         13.29609       75.84670        2.73059
H         11.90154       73.83630        3.73931
H         11.90867       73.93059        1.91161
N         15.27754       72.38682        4.67995
C         16.15780       71.93901        5.75309
C         16.40115       70.44697        5.62050
O         17.54898       70.02726        5.60266
C         15.53921       72.27016        7.12500
C         15.32679       73.78670        7.27626
C         14.69189       74.17974        8.56815
O         14.26948       75.44190        8.68836
O         14.48054       73.37793        9.46010
H         14.34288       72.74032        4.92422
H         17.12813       72.48312        5.70172
H         16.21472       71.91337        7.93366
H         14.56034       71.75825        7.22221
H         14.63778       74.14902        6.48987
H         16.28187       74.33584        7.15619
N         15.34829       69.59597        5.47137
C         15.46851       68.16578        5.29337
H         16.51981       67.81935        5.35407
H         14.87339       67.64989        6.07550
H         15.05843       67.88915        4.29813
H         14.40217       69.98368        5.44280
Ca        12.92618       76.18744       10.30760
O         12.81859       75.27770       13.47314
H         13.06832       74.87432       14.34256
H         12.87142       76.25432       13.62790
O         14.47430       73.15728       12.34798
H         14.59403       72.29852       11.87242
H         15.20639       73.17098       13.01254

Ca 1.0



