%chk=holoCaM-CaMKII.loop2.water2.frame325.chk
%nprocshared=20
%mem=10GB
%nosave
#b3lyp/svp scf=(tight,noincore,xqc) Test 
#IOP(5/87=12) Density=Current Pop=(MK,readradii) iop(6/33=2) iop(6/42=6)

holoCaM-CaMKII.loop2.water2.frame325 

   -2  1 
C         43.91288       55.84382       60.00363
C         43.85049       54.57184       59.20359
O         44.67739       53.69707       59.41472
H         43.08890       56.53742       59.72980
H         43.81658       55.60736       61.08494
H         44.87963       56.35806       59.82749
N         42.87055       54.39259       58.27538
C         42.68652       53.15442       57.52603
C         43.86555       52.83751       56.62794
O         44.20038       53.63949       55.76725
C         41.40681       53.24856       56.67652
C         41.05706       51.99751       55.90635
O         40.72048       50.85304       56.54291
O         40.94490       52.05975       54.69262
H         42.18907       55.15554       58.13841
H         42.55200       52.34972       58.26456
H         41.51863       54.09574       55.96364
H         40.54642       53.47804       57.33972
N         44.50425       51.64043       56.75595
C         45.59169       51.19610       55.89740
C         45.26405       49.90195       55.14684
O         46.06502       49.54055       54.29544
C         46.85189       50.99319       56.74746
H         44.19062       51.01301       57.49885
H         45.80962       51.97563       55.13550
H         46.68370       50.19969       57.50807
H         47.71313       50.69660       56.11147
H         47.11466       51.93514       57.27443
N         44.16206       49.12630       55.41738
C         43.89368       47.85729       54.72729
C         42.47614       47.75291       54.15208
O         42.16911       46.73296       53.55002
C         44.19528       46.67056       55.66628
C         43.20244       46.49230       56.78252
O         43.00158       47.45976       57.69356
O         42.57932       45.44739       56.87238
H         43.52991       49.39677       56.18089
H         44.59813       47.74583       53.87421
H         45.21480       46.79443       56.09171
H         44.20207       45.73906       55.05698
N         41.56566       48.76008       54.27727
C         40.22757       48.72391       53.70153
C         39.23622       47.77030       54.35499
O         38.11663       47.72136       53.86429
H         41.85320       49.63361       54.72725
H         40.31139       48.48935       52.61817
H         39.77977       49.73742       53.78784
N         39.52770       46.99231       55.44143
C         38.54828       46.05921       56.01428
C         37.34652       46.72690       56.70680
O         36.47508       45.99795       57.16242
C         39.22009       45.04411       56.96799
C         39.81174       45.60986       58.23319
N         40.30541       44.76394       59.16418
O         39.84495       46.81405       58.43253
H         40.47957       47.01490       55.83087
H         38.15187       45.44090       55.17729
H         40.01548       44.49468       56.41955
H         38.44992       44.29855       57.26500
H         40.28716       43.74471       59.01309
H         40.68662       45.12444       60.04678
N         37.20423       48.08129       56.80869
C         36.02317       48.72000       57.38157
C         36.05951       48.89631       58.89275
O         35.13518       49.50190       59.41400
H         37.90501       48.69739       56.37872
H         35.10068       48.18686       57.06076
H         35.95629       49.74528       56.95919
N         37.08457       48.42547       59.65928
C         37.19192       48.63012       61.10676
C         38.51775       49.30769       61.44994
O         39.30867       49.56253       60.55547
C         37.07333       47.25982       61.82410
C         35.67450       46.66599       61.64149
O         38.02248       46.34868       61.33000
H         37.83041       47.88785       59.20683
H         36.38043       49.29122       61.48250
H         37.20546       47.37808       62.92290
H         38.90645       46.62533       61.68585
H         34.91000       47.35705       62.05858
H         35.45233       46.48782       60.56851
H         35.60160       45.69940       62.18352
N         38.84707       49.57700       62.75055
C         40.15576       50.08794       63.15022
C         40.94214       48.92073       63.72265
O         40.47181       48.25820       64.63579
C         40.05772       51.27940       64.15594
C         39.24904       52.45266       63.54149
C         41.47976       51.74259       64.55102
C         39.15378       53.69266       64.43885
H         38.18781       49.31565       63.49760
H         40.70835       50.47017       62.26445
H         39.53905       50.93767       65.07910
H         38.21541       52.10184       63.33478
H         39.70801       52.76999       62.58445
H         42.03574       52.11190       63.66224
H         41.45273       52.53995       65.31948
H         42.05137       50.91379       65.01021
H         38.51142       54.45520       63.95039
H         38.71877       53.43369       65.42632
H         40.14945       54.16178       64.58405
N         42.17580       48.63699       63.22080
C         43.02370       47.54366       63.67764
C         44.01007       48.06291       64.70148
O         43.98947       49.24070       65.00362
C         43.79082       46.94538       62.47728
C         42.88687       46.39259       61.41647
O         42.10262       47.11986       60.82727
O         42.97220       45.09129       61.08175
H         42.57162       49.27859       62.52825
H         42.41011       46.75686       64.16811
H         44.45007       46.12423       62.82674
H         44.43456       47.72706       62.01781
N         44.88826       47.22026       65.31348
C         45.82964       47.68413       66.32423
C         46.86549       48.66225       65.76577
O         46.94219       49.75409       66.31810
C         46.50837       46.49889       67.03734
C         47.43519       46.99185       68.12536
C         46.93584       47.73971       69.20910
C         48.81221       46.72752       68.05244
C         47.80243       48.22035       70.19364
C         49.67489       47.20879       69.04135
C         49.17120       47.95618       70.10945
H         44.85127       46.21597       65.08875
H         45.23737       48.20937       67.10613
H         47.05974       45.88234       66.30242
H         45.73198       45.84707       67.49351
H         45.87873       47.95860       69.29184
H         49.21933       46.15838       67.22617
H         47.41215       48.80080       71.01988
H         50.73548       47.00600       68.97637
H         49.84128       48.33171       70.87138
N         47.70844       48.39564       64.71260
C         48.72431       49.33670       64.25238
C         48.12588       50.57910       63.60654
O         48.86601       51.50632       63.31491
C         49.56371       48.51137       63.27212
C         48.52254       47.58393       62.67922
C         47.71797       47.18339       63.91549
H         49.36749       49.66331       65.09981
H         50.16796       49.09666       62.54599
H         50.25463       47.86639       63.86163
H         47.86985       48.19664       62.01560
H         48.91605       46.72745       62.09159
H         46.71308       46.86230       63.57928
H         48.23099       46.38123       64.48449
N         46.79226       50.66498       63.36067
C         46.12759       51.84987       62.84475
C         45.84621       52.78096       64.00625
O         46.21389       53.94548       63.94140
C         44.85616       51.41073       62.08287
C         45.29115       50.54441       60.88171
C         44.19682       49.97972       60.03558
O         44.51411       49.32757       59.05626
O         42.89121       50.10097       60.33244
H         46.19524       49.85141       63.55664
H         46.76902       52.37720       62.10134
H         44.30214       52.30134       61.71508
H         44.19066       50.84078       62.76071
H         45.89828       49.68046       61.22264
H         45.92666       51.17399       60.22015
N         45.26134       52.30133       65.13888
C         45.02712       53.07937       66.33519
H         43.95098       53.02698       66.60042
H         45.61767       52.64229       67.16997
H         45.32069       54.14144       66.21368
H         45.00855       51.31134       65.18292
Ca        41.48181       50.24183       58.57983
O         38.49114       50.65259       58.08091
H         38.20495       51.30763       58.76367
H         38.19769       51.04210       57.22005
O         40.38423       52.35614       60.19182
H         40.20939       53.21787       59.73955
H         41.29981       52.44569       60.55810

Ca 1.0



