%chk=holoCaM.loop2.water2.frame445.chk
%nprocshared=20
%mem=10GB
%nosave
#b3lyp/svp scf=(tight,noincore,xqc) Test 
#IOP(5/87=12) Density=Current Pop=(MK,readradii) iop(6/33=2) iop(6/42=6)

holoCaM.loop2.water2.frame445 

   -2  1 
C          1.45735      103.36299       56.75984
C          2.04119      104.72712       56.95775
O          3.24780      104.89041       56.83951
H          0.72283      103.38989       55.92803
H          2.25126      102.62500       56.51971
H          0.94260      103.04707       57.69179
N          1.22389      105.76955       57.26759
C          1.71837      107.12283       57.48728
C          2.66701      107.17682       58.67954
O          2.64763      106.27510       59.50628
C          0.51714      108.06774       57.68244
C          0.90900      109.47892       57.96054
O          0.60432      110.01330       59.15343
O          1.49932      110.14351       57.12691
H          0.20953      105.58747       57.33255
H          2.27695      107.42575       56.58723
H         -0.07853      107.70074       58.54592
H         -0.13265      108.04873       56.77966
N          3.56240      108.20224       58.79539
C          4.52163      108.31984       59.88337
C          4.39421      109.63556       60.63797
O          5.06865      109.76775       61.65070
C          5.93874      108.20690       59.31116
H          3.59857      108.91051       58.05419
H          4.37151      107.49490       60.61243
H          6.69800      108.23817       60.12068
H          6.05338      107.25001       58.75837
H          6.13679      109.05013       58.61368
N          3.62070      110.67547       60.19415
C          3.59169      111.96822       60.86495
C          2.17678      112.52808       60.95746
O          1.97302      113.70704       60.70023
C          4.59700      112.91389       60.17082
C          4.32411      113.07949       58.69853
O          5.14773      112.70375       57.87948
O          3.17876      113.64286       58.27428
H          3.12548      110.60700       59.29842
H          3.93481      111.85108       61.91651
H          5.61218      112.47331       60.28985
H          4.60315      113.90845       60.66454
N          1.14905      111.74147       61.38014
C         -0.18453      112.25456       61.65217
C         -0.93850      112.89407       60.49388
O         -1.99738      113.43173       60.78694
H          1.33462      110.75011       61.59588
H         -0.08194      113.02710       62.44557
H         -0.81589      111.43740       62.06397
N         -0.50956      112.90559       59.18998
C         -1.21693      113.66097       58.14663
C         -1.94539      112.77767       57.12847
O         -2.62287      113.32096       56.26752
C         -0.24418      114.70101       57.52530
C          0.64131      114.23574       56.34275
N         -0.02174      114.48814       55.06725
O          0.94680      112.87290       56.45354
H          0.35672      112.41699       58.93192
H         -2.01664      114.26147       58.63015
H          0.41084      115.07926       58.33989
H         -0.82231      115.58959       57.19182
H         -0.36191      115.47704       55.03327
H          0.71705      114.44200       54.33386
N         -1.89458      111.41354       57.19213
C         -2.64853      110.52093       56.32110
C         -2.28677      110.67285       54.86227
O         -3.17154      110.94560       54.06720
H         -1.33573      110.96729       57.92671
H         -3.73533      110.70543       56.46499
H         -2.44312      109.46889       56.61903
N         -1.00552      110.46851       54.44674
C         -0.51828      110.60544       53.06522
C          0.93190      110.14545       53.04509
O          1.70778      110.66005       53.83720
C         -0.59164      112.08034       52.56616
C         -0.00817      112.27779       51.15790
O         -1.89917      112.58929       52.58979
H         -0.33553      110.18212       55.17725
H         -1.11915      109.96024       52.38689
H          0.01570      112.68843       53.25288
H         -2.42938      112.08389       51.91834
H          1.06017      111.98179       51.11934
H         -0.57707      111.68094       50.41403
H         -0.07492      113.35176       50.87972
N          1.37826      109.19338       52.17472
C          2.73333      108.65074       52.25646
C          3.66775      109.29304       51.23589
O          3.45085      109.18537       50.03819
C          2.73778      107.08833       52.28989
C          2.18757      106.41839       51.00634
C          1.97884      106.61350       53.54403
C          2.27660      104.88741       51.04533
H          0.73692      108.83937       51.45077
H          3.16216      108.92998       53.23478
H          3.79453      106.76517       52.40287
H          2.78782      106.75850       50.13835
H          1.12731      106.69697       50.83663
H          0.90115      106.87413       53.48577
H          2.08515      105.52301       53.70657
H          2.40995      107.09813       54.43600
H          3.31853      104.56248       51.23262
H          1.62425      104.45877       51.83270
H          1.94100      104.46711       50.07509
N          4.76236      109.98148       51.69073
C          5.79546      110.59876       50.86390
C          6.91043      109.56727       50.65006
O          6.62630      108.39642       50.82727
C          6.25671      111.89292       51.58657
C          6.99984      112.90213       50.74684
O          7.44904      114.03083       51.32756
O          7.14650      112.75182       49.54391
H          4.93101      110.00973       52.70500
H          5.36187      110.88390       49.88042
H          6.85684      111.61336       52.48033
H          5.35776      112.43704       51.93987
N          8.16741      109.87840       50.21954
C          9.16236      108.86107       49.88187
C          9.55787      107.96181       51.06667
O          9.38192      106.76158       50.91457
C         10.37488      109.50770       49.16869
C         11.37359      108.50190       48.65157
C         10.99711      107.55734       47.68026
C         12.70094      108.51789       49.11431
C         11.93293      106.64765       47.18096
C         13.63353      107.60558       48.61180
C         13.25035      106.67240       47.64495
H          8.42133      110.85733       50.06012
H          8.69325      108.20508       49.11426
H         10.88104      110.23616       49.81791
H         10.00412      110.08989       48.29748
H          9.98396      107.53012       47.30032
H         13.01646      109.23792       49.85944
H         11.63714      105.92727       46.42941
H         14.65504      107.62547       48.96864
H         13.97466      105.97058       47.25288
N         10.09459      108.40353       52.25569
C         10.46696      107.50845       53.35628
C          9.31559      106.63141       53.80074
O          9.48167      105.43292       53.98014
C         10.82406      108.46213       54.50828
C         11.33610      109.66890       53.76916
C         10.32944      109.78454       52.62786
H         11.35694      106.90954       53.05817
H          9.90418      108.80599       55.03460
H         11.50938      108.02671       55.26776
H         11.44623      110.58546       54.38646
H         12.32771      109.40192       53.33659
H          9.36508      110.23005       52.96087
H         10.79517      110.41204       51.85937
N          8.09720      107.20822       53.97336
C          6.89075      106.53291       54.42446
C          6.58249      105.32957       53.54423
O          6.38399      104.24395       54.07047
C          5.70995      107.53707       54.41760
C          5.92403      108.73355       55.37804
C          4.74185      109.66644       55.41288
O          3.64299      109.22543       55.68483
O          4.87255      110.99397       55.19551
H          8.02702      108.20683       53.73453
H          7.02798      106.17548       55.46997
H          4.79573      106.99298       54.73698
H          5.56229      107.91313       53.38676
H          6.82205      109.32797       55.11590
H          6.06910      108.32366       56.39618
N          6.57770      105.44897       52.18959
C          6.32522      104.36248       51.26758
H          5.49576      104.64650       50.58923
H          7.23003      104.19203       50.64693
H          6.06153      103.41814       51.78624
H          6.80571      106.35446       51.78137
Ca         3.04957      112.28413       55.70241
O          3.09579      113.39206       52.83165
H          3.84215      114.00192       53.05744
H          2.33486      113.99483       52.64246
O          4.24103      115.01869       55.61432
H          5.12690      114.84644       55.20678
H          4.39285      115.77509       56.23418

Ca 1.0



