%chk=holoCaM-CaMKII.loop2.water2.frame20.chk
%nprocshared=20
%mem=10GB
%nosave
#b3lyp/svp scf=(tight,noincore,xqc) Test 
#IOP(5/87=12) Density=Current Pop=(MK,readradii) iop(6/33=2) iop(6/42=6)

holoCaM-CaMKII.loop2.water2.frame20 

   -2  1 
C         43.63380       64.12830       18.54580
C         44.50929       63.54739       17.46998
O         45.29853       62.65926       17.74451
H         42.62520       63.66272       18.48668
H         44.05780       63.94296       19.55351
H         43.51467       65.22271       18.39625
N         44.36986       63.98655       16.19439
C         45.05274       63.42367       15.03393
C         46.57406       63.63134       15.01633
O         47.04231       64.74329       15.21039
C         44.41980       64.02906       13.77479
C         45.01640       63.44683       12.54681
O         45.49774       64.18027       11.69988
O         45.05257       62.11056       12.39708
H         43.67692       64.73558       16.03393
H         44.82995       62.33313       14.99983
H         44.53528       65.13405       13.76505
H         43.33629       63.78740       13.77381
N         47.38644       62.57821       14.69157
C         48.83988       62.59934       14.57957
C         49.35814       62.11638       13.20517
O         50.56747       62.14867       13.02383
C         49.41704       61.70012       15.68402
H         46.94002       61.68939       14.50404
H         49.21513       63.63114       14.74733
H         50.52777       61.71650       15.67305
H         49.07710       62.05750       16.68007
H         49.07551       60.64892       15.55599
N         48.54266       61.64017       12.20559
C         49.05826       61.12325       10.92295
C         48.11980       61.33735        9.71548
O         48.46771       60.89617        8.62827
C         49.46675       59.63790       11.06650
C         48.32839       58.70265       11.36028
O         48.54558       57.50934       11.49461
O         47.07011       59.15944       11.46533
H         47.54296       61.53842       12.40196
H         49.99253       61.66940       10.66488
H         50.21914       59.54791       11.87926
H         49.95104       59.30183       10.12263
N         46.95738       62.04440        9.80592
C         46.09505       62.37043        8.67539
C         45.30840       61.21708        8.07607
O         44.66429       61.44847        7.06222
H         46.72238       62.47304       10.69480
H         46.72073       62.83721        7.88485
H         45.34673       63.12797        8.99735
N         45.29853       59.96239        8.61077
C         44.64073       58.82940        7.95787
C         43.10056       58.81322        8.01484
O         42.52569       57.79916        7.64094
C         45.25696       57.49136        8.42469
C         44.93746       56.99681        9.80261
N         45.34356       55.74757       10.12951
O         44.29792       57.67007       10.59550
H         45.86338       59.78140        9.44806
H         44.92826       58.85133        6.88411
H         46.36305       57.53586        8.31933
H         44.88446       56.70549        7.73377
H         45.88533       55.18205        9.46396
H         45.09736       55.30135       11.01211
N         42.35637       59.89133        8.40300
C         40.89844       59.90717        8.40836
C         40.25732       59.14418        9.55313
O         39.03698       59.17065        9.62919
H         42.81892       60.77798        8.62336
H         40.51413       59.53346        7.43215
H         40.55965       60.95980        8.51503
N         40.98351       58.43210       10.46512
C         40.37166       57.65967       11.54413
C         41.07987       57.87054       12.87917
O         42.23853       58.26276       12.90063
C         40.40049       56.15206       11.17332
C         39.50776       55.87710        9.95944
O         41.70075       55.71248       10.85644
H         41.99887       58.37063       10.35378
H         39.31044       57.96362       11.68475
H         39.99626       55.55115       12.01847
H         42.31364       55.98495       11.58489
H         39.49997       54.78970        9.73659
H         38.46532       56.20373       10.16079
H         39.88643       56.40899        9.06059
N         40.43619       57.56340       14.04580
C         41.10919       57.55122       15.34297
C         41.90970       56.26263       15.43652
O         41.37289       55.20804       15.13133
C         40.12385       57.60306       16.55480
C         39.12228       58.78014       16.44495
C         40.93906       57.72661       17.87001
C         38.06499       58.76091       17.55541
H         39.44899       57.27217       13.99921
H         41.74466       58.45681       15.43830
H         39.53711       56.65829       16.57195
H         38.56671       58.70102       15.48954
H         39.65756       59.75494       16.45292
H         41.63762       56.88054       17.99240
H         41.53047       58.67016       17.87581
H         40.29710       57.70952       18.77014
H         37.31936       59.56180       17.37526
H         37.53786       57.78220       17.56276
H         38.50873       58.94191       18.55467
N         43.17304       56.27106       15.92908
C         43.98238       55.07393       16.12207
C         44.24067       54.86941       17.59598
O         43.80653       55.68475       18.38503
C         45.25548       55.24440       15.29536
C         44.85939       55.15562       13.84869
O         44.42654       54.10292       13.40989
O         44.98580       56.19660       13.01501
H         43.57658       57.16177       16.22892
H         43.44354       54.16035       15.78963
H         46.00062       54.44741       15.50002
H         45.72841       56.22477       15.54001
N         44.86313       53.74301       18.05520
C         44.97440       53.48798       19.48803
C         45.83927       54.52510       20.19025
O         45.40653       55.00021       21.23473
C         45.46399       52.06199       19.82515
C         45.25913       51.81877       21.30709
C         46.35327       51.69470       22.17823
C         43.95333       51.75805       21.83392
C         46.14215       51.53111       23.55249
C         43.74819       51.58928       23.20417
C         44.84181       51.48068       24.06438
H         45.18603       53.03207       17.38449
H         43.94026       53.55035       19.89184
H         46.52879       51.94452       19.54558
H         44.88264       51.29906       19.26358
H         47.36579       51.74868       21.79945
H         43.09107       51.84805       21.18435
H         46.98694       51.45225       24.22349
H         42.74030       51.55084       23.59815
H         44.67999       51.36012       25.12760
N         47.05855       54.93949       19.72373
C         47.87544       55.96236       20.36725
C         47.08828       57.23212       20.65766
O         47.18735       57.78332       21.74144
C         48.98274       56.23896       19.33550
C         49.13839       54.88633       18.67928
C         47.68492       54.47560       18.49615
H         48.31289       55.54465       21.30062
H         48.61089       56.92337       18.53756
H         49.91150       56.67247       19.76311
H         49.74246       54.87136       17.74692
H         49.60394       54.19651       19.42057
H         47.22249       55.00784       17.63531
H         47.64439       53.38229       18.34220
N         46.26282       57.72628       19.70049
C         45.45183       58.93413       19.83685
C         44.33538       58.76061       20.85337
O         43.99344       59.72451       21.52373
C         44.83532       59.25863       18.47681
C         45.93357       59.53283       17.42958
C         45.35783       59.57576       16.06533
O         46.15256       59.72513       15.01343
O         44.17470       59.37354       15.87024
H         46.20545       57.19402       18.81891
H         46.09115       59.80011       20.11557
H         44.16968       60.14884       18.53392
H         44.21803       58.38508       18.16972
H         46.68600       58.71894       17.39716
H         46.47710       60.46970       17.66040
N         43.70072       57.56400       20.99272
C         42.61752       57.30823       21.91722
H         41.73618       56.93644       21.35222
H         42.93161       56.52130       22.63587
H         42.32250       58.21359       22.48501
H         44.00739       56.77458       20.42268
Ca        45.69707       58.18346       13.56251
O         42.96930       60.92025       11.15300
H         43.78917       61.07918       10.62128
H         42.49103       61.78642       11.12669
O         42.41035       61.14904       14.11099
H         41.89619       61.96836       14.31287
H         42.38442       60.65000       14.96119

Ca 1.0



