%chk=holoCaM-CaMKII.loop2.water2.frame427.chk
%nprocshared=20
%mem=10GB
%nosave
#b3lyp/svp scf=(tight,noincore,xqc) Test 
#IOP(5/87=12) Density=Current Pop=(MK,readradii) iop(6/33=2) iop(6/42=6)

holoCaM-CaMKII.loop2.water2.frame427 

   -2  1 
C         66.27273       59.10109       21.23871
C         66.92483       58.69862       19.94787
O         67.56667       59.51579       19.30568
H         65.18103       58.90709       21.19084
H         66.70570       58.49180       22.06304
H         66.44931       60.17279       21.46463
N         66.82446       57.41000       19.53608
C         67.53641       56.85715       18.39167
C         67.12075       57.44716       17.04901
O         65.94238       57.68867       16.82844
C         67.33288       55.32792       18.38005
C         68.14862       54.66156       17.32247
O         69.35203       54.84477       17.28779
O         67.56146       53.86536       16.40987
H         66.27225       56.76772       20.12728
H         68.62053       57.04111       18.54660
H         66.25849       55.07765       18.24120
H         67.66060       54.91999       19.35940
N         68.04501       57.51082       16.04172
C         67.70928       57.77957       14.64750
C         68.76986       57.16677       13.73698
O         69.36574       57.85750       12.92213
C         67.51949       59.28196       14.40420
H         69.00490       57.20089       16.25200
H         66.76264       57.25103       14.39769
H         67.22674       59.45817       13.34560
H         66.71968       59.68703       15.05695
H         68.46482       59.82962       14.60786
N         69.02437       55.82929       13.83184
C         69.97382       55.09645       12.99872
C         69.86726       53.59080       13.25194
O         69.62562       52.86862       12.29477
C         71.43047       55.62488       13.08537
C         72.06008       55.80382       14.43125
O         73.21701       56.19112       14.48446
O         71.38894       55.63318       15.57746
H         68.47866       55.29542       14.52188
H         69.68804       55.24285       11.93311
H         71.47880       56.62567       12.60874
H         72.07760       54.95128       12.48309
N         70.00243       53.04475       14.49646
C         69.88235       51.61858       14.77428
C         71.16586       51.02080       15.32284
O         71.18399       49.82254       15.56587
H         70.17605       53.65597       15.29799
H         69.62240       51.05314       13.85411
H         69.05896       51.46347       15.50507
N         72.29251       51.77178       15.50006
C         73.59184       51.21767       15.88195
C         73.70041       50.69808       17.32869
O         74.78846       50.28037       17.70099
C         74.70229       52.25751       15.59168
C         74.66345       53.50001       16.44011
N         75.64176       54.42237       16.31373
O         73.76539       53.67883       17.24502
H         72.26125       52.76953       15.24997
H         73.80998       50.36972       15.19588
H         74.64134       52.56710       14.52408
H         75.68729       51.76981       15.74512
H         76.40803       54.28845       15.63928
H         75.64589       55.26318       16.90200
N         72.64121       50.65309       18.18887
C         72.71843       50.11209       19.54308
C         73.34956       51.02865       20.58757
O         73.40420       50.61366       21.73616
H         71.71142       50.91188       17.84981
H         73.24262       49.13040       19.51776
H         71.68336       49.91909       19.89717
N         73.84465       52.26491       20.28901
C         74.46886       53.16090       21.26823
C         73.90541       54.57008       21.18092
O         73.81232       55.10513       20.08814
C         75.99552       53.24427       21.04306
C         76.69347       51.91277       21.34015
O         76.31508       53.71244       19.75516
H         73.82208       52.57237       19.31465
H         74.33358       52.78360       22.30640
H         76.40428       53.97461       21.77783
H         76.09556       52.99524       19.10601
H         77.79146       52.03724       21.23738
H         76.47445       51.59773       22.38389
H         76.34951       51.11871       20.64582
N         73.60013       55.26824       22.31322
C         73.19941       56.67730       22.29744
C         74.36137       57.53394       21.78927
O         75.40295       57.57869       22.42882
C         72.75075       57.14480       23.72020
C         71.51613       56.32443       24.18513
C         72.43028       58.65482       23.73914
C         71.08930       56.61281       25.62513
H         73.70144       54.78783       23.21929
H         72.32282       56.79008       21.62161
H         73.59331       56.96672       24.42580
H         71.74435       55.24057       24.14290
H         70.65822       56.51518       23.50397
H         71.58837       58.88943       23.05496
H         72.17564       59.00033       24.75957
H         73.31404       59.25059       23.44280
H         70.74414       57.65787       25.75105
H         70.24114       55.94886       25.89362
H         71.93161       56.41215       26.32083
N         74.23422       58.24558       20.63469
C         75.26923       59.12978       20.08824
C         75.21552       60.47683       20.78016
O         74.38459       60.65405       21.65186
C         75.03535       59.31072       18.57249
C         75.19777       58.00196       17.86155
O         74.52749       56.92535       18.30204
O         75.96450       57.89702       16.91739
H         73.35180       58.15228       20.11331
H         76.27715       58.67822       20.22552
H         75.74974       60.03467       18.12857
H         74.00509       59.69365       18.40292
N         76.07353       61.48283       20.45481
C         76.00701       62.80529       21.07147
C         74.70239       63.54858       20.73580
O         74.03702       63.94641       21.68045
C         77.23450       63.65548       20.70024
C         77.21352       64.98030       21.42924
C         77.29159       65.02980       22.83516
C         77.10049       66.17910       20.70802
C         77.25347       66.25824       23.50138
C         77.06013       67.40463       21.37890
C         77.13645       67.44471       22.77367
H         76.81302       61.29387       19.75979
H         76.05858       62.65878       22.17430
H         77.25992       63.80896       19.60405
H         78.16431       63.11310       20.97884
H         77.38163       64.12123       23.41768
H         77.03312       66.16436       19.62771
H         77.31269       66.29044       24.58213
H         76.96677       68.32366       20.81607
H         77.10425       68.39502       23.29037
N         74.24097       63.77401       19.45476
C         72.99008       64.47841       19.15086
C         71.73790       63.73536       19.60122
O         70.64985       64.26241       19.41132
C         73.02021       64.63301       17.62563
C         73.77304       63.39089       17.20344
C         74.89544       63.34970       18.23463
H         72.97438       65.48681       19.62010
H         72.03127       64.78727       17.14031
H         73.67107       65.49896       17.36989
H         73.10822       62.51272       17.37405
H         74.11667       63.37511       16.14798
H         75.29070       62.32119       18.26157
H         75.69314       64.08200       17.98294
N         71.81068       62.54003       20.23943
C         70.67270       61.81757       20.77638
C         70.62765       62.04463       22.28017
O         69.56425       62.35637       22.79601
C         70.79221       60.33313       20.38092
C         70.80627       60.19059       18.84484
C         70.94644       58.77701       18.37146
O         70.98740       58.55241       17.17327
O         71.03924       57.75517       19.24066
H         72.72606       62.10662       20.38997
H         69.71284       62.19782       20.35826
H         69.93332       59.76585       20.80141
H         71.73139       59.91090       20.79987
H         71.66139       60.76000       18.42487
H         69.86548       60.60790       18.42701
N         71.76941       62.02053       23.02562
C         71.84117       62.35398       24.43086
H         72.48713       63.25156       24.55258
H         70.84633       62.57419       24.86580
H         72.30648       61.51355       24.98458
H         72.65967       61.81634       22.57427
Ca        72.68060       56.21109       17.29117
O         70.77692       53.03037       18.59512
H         70.18036       52.57825       17.94475
H         70.49737       52.67038       19.47242
O         70.04395       55.42920       20.64727
H         69.80316       56.33624       20.96224
H         69.40800       54.83338       21.11542

Ca 1.0



