%chk=holoCaM-CaMKII.loop2.water2.frame197.chk
%nprocshared=20
%mem=10GB
%nosave
#b3lyp/svp scf=(tight,noincore,xqc) Test 
#IOP(5/87=12) Density=Current Pop=(MK,readradii) iop(6/33=2) iop(6/42=6)

holoCaM-CaMKII.loop2.water2.frame197 

   -2  1 
C          7.86959       66.47119       16.79159
C          6.79708       67.49633       17.03982
O          5.62383       67.16370       16.96102
H          8.88504       66.90607       16.91715
H          7.76285       65.64141       17.52261
H          7.78447       66.06713       15.76281
N          7.13702       68.76615       17.38792
C          6.16716       69.79102       17.75558
C          5.31956       70.23346       16.56645
O          5.89281       70.60668       15.55184
C          6.91894       71.01945       18.31628
C          6.01343       71.98550       19.02260
O          6.51990       73.12838       19.52052
O          4.83740       71.71829       19.20492
H          8.14158       68.99153       17.46480
H          5.53581       69.38145       18.57554
H          7.45994       71.53399       17.49188
H          7.66801       70.69317       19.06785
N          3.95424       70.28071       16.64453
C          3.10519       70.75670       15.55182
C          2.29745       72.01308       15.89924
O          1.66155       72.53531       14.99350
C          2.14985       69.63213       15.13510
H          3.50059       69.97752       17.51573
H          3.73134       71.01821       14.67164
H          2.72579       68.73198       14.83281
H          1.48338       69.35859       15.98264
H          1.51893       69.94709       14.27619
N          2.22042       72.53208       17.16408
C          1.34738       73.66362       17.50936
C          1.96989       74.70085       18.45799
O          1.30226       75.69258       18.72046
C          0.02417       73.13091       18.10327
C          0.23386       72.13656       19.20723
O         -0.41207       71.10079       19.22014
O          1.28265       72.25830       20.03410
H          2.67975       72.02493       17.92837
H          1.07413       74.22972       16.59183
H         -0.55235       72.62160       17.29983
H         -0.60486       73.97215       18.46450
N          3.21201       74.57477       19.00756
C          3.81062       75.59005       19.86983
C          3.12555       75.82096       21.21412
O          3.54680       76.74077       21.90134
H          3.79062       73.77011       18.76084
H          3.82182       76.55032       19.31026
H          4.86649       75.31549       20.08232
N          2.08192       75.06435       21.66843
C          1.36652       75.35969       22.91361
C          2.22421       75.27815       24.18200
O          1.74226       75.71637       25.21745
C          0.10230       74.46935       23.05983
C          0.38117       72.99160       23.21373
N         -0.63758       72.11812       23.38227
O          1.52530       72.57433       23.18941
H          1.74108       74.29758       21.08475
H          1.01010       76.41027       22.82707
H         -0.54410       74.60979       22.16616
H         -0.47088       74.80473       23.95089
H         -1.61399       72.44460       23.40772
H         -0.44743       71.11082       23.49433
N          3.47670       74.73114       24.19435
C          4.34084       74.71559       25.36949
C          4.64872       73.32397       25.89565
O          5.43051       73.23610       26.83212
H          3.85576       74.32104       23.33435
H          3.89186       75.28636       26.21171
H          5.29128       75.22104       25.09804
N          4.02825       72.20595       25.41748
C          4.18520       70.87744       26.00870
C          4.46969       69.80491       24.96251
O          4.46638       70.07902       23.77134
C          2.86735       70.51031       26.75563
C          2.62500       71.42113       27.95889
O          1.76173       70.59649       25.89057
H          3.33331       72.30736       24.67260
H          5.02232       70.86139       26.74097
H          2.92150       69.48546       27.18492
H          1.76717       69.78133       25.32424
H          3.47091       71.33597       28.67463
H          2.51479       72.47972       27.64635
H          1.69530       71.10801       28.48074
N          4.62065       68.51520       25.37918
C          4.58032       67.34805       24.50986
C          3.18381       66.77813       24.63900
O          2.70310       66.60474       25.75186
C          5.64739       66.29173       24.93046
C          7.07169       66.83389       24.66453
C          5.42154       64.95397       24.18466
C          8.17893       65.91092       25.18396
H          4.59102       68.32823       26.39278
H          4.75105       67.61929       23.44288
H          5.53003       66.09076       26.01894
H          7.19132       67.81128       25.17775
H          7.21437       66.99492       23.57260
H          4.42242       64.53875       24.42240
H          5.50060       65.09114       23.08499
H          6.13411       64.17258       24.50978
H          8.17538       64.92787       24.67190
H          9.16818       66.37498       24.99192
H          8.06378       65.75462       26.27751
N          2.49541       66.41271       23.52576
C          1.15276       65.85030       23.56682
C          1.24897       64.36097       23.36507
O          2.33624       63.86590       23.11735
C          0.29562       66.46790       22.44876
C          0.29661       67.96412       22.47056
O          1.47066       68.61951       22.46119
O         -0.75087       68.58792       22.41530
H          2.97043       66.46781       22.61203
H          0.68573       66.03633       24.55899
H         -0.74639       66.08309       22.48142
H          0.74125       66.17250       21.47309
N          0.16318       63.55995       23.50539
C          0.26778       62.11805       23.34951
C          0.53438       61.73342       21.89359
O          1.52272       61.04726       21.67578
C         -0.92136       61.40424       24.02194
C         -0.82727       59.89518       23.95557
C         -1.93174       59.15033       23.51020
C          0.34067       59.21119       24.35354
C         -1.87178       57.75473       23.46429
C          0.40170       57.81742       24.28639
C         -0.70461       57.08923       23.84623
H         -0.73498       63.98100       23.79088
H          1.14421       61.79042       23.94988
H         -1.89089       61.75094       23.61860
H         -0.90349       61.69466       25.09560
H         -2.84670       59.64800       23.21424
H          1.21281       59.74249       24.70818
H         -2.73241       57.18910       23.13348
H          1.30727       57.30218       24.58064
H         -0.65814       56.00916       23.80486
N         -0.23670       62.15260       20.83635
C          0.06183       61.85666       19.43578
C          1.51045       62.11374       19.06046
O          2.14120       61.25285       18.46353
C         -0.84663       62.82623       18.66329
C         -2.05188       62.90042       19.56465
C         -1.40285       63.00794       20.94121
H         -0.22184       60.80143       19.22338
H         -0.40732       63.85046       18.65778
H         -1.04700       62.53034       17.61132
H         -2.77512       63.71047       19.33063
H         -2.57557       61.91951       19.49712
H         -1.06440       64.04385       21.15672
H         -2.14377       62.67298       21.68779
N          2.09902       63.28940       19.41250
C          3.47738       63.65069       19.09511
C          4.43926       62.63093       19.68014
O          5.21824       62.05116       18.93647
C          3.78877       65.06675       19.63626
C          2.91112       66.14356       18.96167
C          3.11183       67.51440       19.54089
O          2.44130       68.44267       19.12185
O          3.99094       67.73213       20.53643
H          1.52855       63.95172       19.95825
H          3.61156       63.67280       17.98996
H          4.85701       65.31414       19.44724
H          3.61568       65.07886       20.73429
H          1.83605       65.90727       19.08538
H          3.13419       66.17076       17.87326
N          4.41744       62.34080       21.00736
C          5.28583       61.35660       21.61220
H          6.34633       61.66029       21.49249
H          5.05808       61.27255       22.69716
H          5.12126       60.36434       21.14098
H          3.74341       62.81990       21.60867
Ca         1.65423       70.52535       21.36154
O          6.14001       69.50066       21.38632
H          6.46355       68.64902       20.99900
H          6.92365       70.10358       21.35015
O          4.81690       72.30101       22.06155
H          4.48193       73.03705       21.49111
H          5.56326       72.70084       22.57487

Ca 1.0



