%chk=holoCaM-CaMKII.loop2.water2.frame2.chk
%nprocshared=20
%mem=10GB
%nosave
#b3lyp/svp scf=(tight,noincore,xqc) Test 
#IOP(5/87=12) Density=Current Pop=(MK,readradii) iop(6/33=2) iop(6/42=6)

holoCaM-CaMKII.loop2.water2.frame2 

   -2  1 
C         63.35423       49.64283       41.61379
C         63.54423       50.49509       40.38556
O         63.55412       51.71108       40.49896
H         64.16640       49.85275       42.34225
H         62.37499       49.85891       42.08739
H         63.39233       48.55880       41.36877
N         63.73039       49.90833       39.17255
C         64.02308       50.63395       37.93866
C         62.89295       51.54920       37.48497
O         61.75321       51.10999       37.42467
C         64.32539       49.62333       36.81699
C         64.71674       50.32970       35.55524
O         64.07653       50.16704       34.52995
O         65.75885       51.17633       35.56604
H         63.72029       48.87655       39.13665
H         64.94653       51.23304       38.09587
H         63.43889       48.97710       36.63409
H         65.17195       48.97458       37.12772
N         63.17993       52.81326       37.04433
C         62.19031       53.73998       36.50217
C         62.46007       54.14941       35.04366
O         61.62250       54.85034       34.49276
C         62.16822       54.99001       37.38773
H         64.15542       53.13191       37.08422
H         61.18242       53.27305       36.52771
H         61.40001       55.71123       37.03796
H         61.93552       54.70754       38.43651
H         63.16241       55.48994       37.37110
N         63.59809       53.80242       34.36654
C         63.90656       54.23954       32.99769
C         64.28503       53.06294       32.08994
O         63.66639       52.93275       31.04247
C         64.94977       55.39131       33.00804
C         66.05896       55.20470       33.99343
O         66.12916       55.94008       34.96648
O         66.91623       54.18669       33.89151
H         64.32229       53.26569       34.85847
H         63.01706       54.71097       32.52039
H         64.40848       56.30736       33.33698
H         65.33971       55.59266       31.98696
N         65.26557       52.16652       32.41170
C         65.66737       51.04576       31.56137
C         67.15562       51.05399       31.21497
O         67.60421       50.12524       30.55896
H         65.73531       52.24787       33.31801
H         65.09056       51.02957       30.61086
H         65.44438       50.10435       32.10579
N         67.97302       52.07816       31.59313
C         69.39071       52.21143       31.24465
C         70.34709       51.21956       31.92854
O         71.54199       51.32804       31.68791
C         69.83851       53.67263       31.51350
C         69.79320       54.11335       32.95782
N         70.09036       55.39168       33.27805
O         69.47628       53.33374       33.84061
H         67.53965       52.86878       32.07300
H         69.48591       52.07022       30.14559
H         69.16414       54.34240       30.93501
H         70.87052       53.82399       31.13311
H         70.34543       56.07148       32.54787
H         70.05285       55.70575       34.25689
N         69.92390       50.21666       32.75085
C         70.82765       49.22775       33.33456
C         71.64178       49.69627       34.53500
O         72.37790       48.87796       35.06565
H         68.91702       50.07671       32.89281
H         71.49580       48.82183       32.54386
H         70.21378       48.38082       33.71123
N         71.53103       50.95036       35.05918
C         72.18786       51.37631       36.29868
C         71.14424       51.74256       37.34409
O         69.96217       51.78369       37.04387
C         73.12015       52.59546       36.03966
C         74.38353       52.19692       35.28129
O         72.45064       53.59836       35.31792
H         70.91344       51.62303       34.59867
H         72.78712       50.55077       36.74042
H         73.49175       53.01794       37.00154
H         71.81309       54.03106       35.94167
H         74.13820       51.76831       34.28890
H         75.02943       53.09161       35.14125
H         74.95805       51.45261       35.87465
N         71.54615       52.07219       38.60455
C         70.65312       52.59136       39.62920
C         70.91259       54.07558       39.71103
O         72.04334       54.49136       39.91854
C         70.83597       51.84842       40.99070
C         70.19998       50.43586       40.88767
C         70.18995       52.64186       42.15124
C         70.40750       49.55350       42.12105
H         72.55362       52.05529       38.82166
H         69.59423       52.46904       39.33436
H         71.92296       51.76786       41.21184
H         70.63095       49.89897       40.01640
H         69.10417       50.54166       40.72319
H         70.65717       53.64372       42.25178
H         69.10120       52.77006       41.98585
H         70.35223       52.14570       43.12772
H         69.91948       48.57007       41.95178
H         71.49033       49.38996       42.29767
H         69.94473       49.99100       43.02843
N         69.86411       54.93151       39.57109
C         69.98060       56.37470       39.62643
C         69.51545       56.84232       40.98464
O         69.13504       56.02713       41.80907
C         69.15464       57.00777       38.48743
C         69.63902       56.56953       37.13393
O         70.04793       57.39415       36.33266
O         69.60715       55.26839       36.79003
H         68.91534       54.54708       39.48749
H         71.04356       56.68690       39.52873
H         69.22012       58.11477       38.54659
H         68.08476       56.72113       38.59270
N         69.59365       58.15731       41.31281
C         69.30802       58.63641       42.65392
C         67.87276       58.37509       43.10802
O         67.73365       57.80655       44.18507
C         69.68948       60.12290       42.78858
C         69.61052       60.57593       44.22704
C         68.73873       61.61001       44.60015
C         70.41073       59.96282       45.21161
C         68.66295       62.01758       45.93567
C         70.32731       60.36936       46.54406
C         69.45369       61.39595       46.90666
H         69.94339       58.82365       40.60923
H         69.98808       58.07959       43.33457
H         69.04099       60.73924       42.13322
H         70.73885       60.26324       42.44789
H         68.11713       62.09772       43.85994
H         71.09863       59.16727       44.95424
H         67.98883       62.81462       46.21835
H         70.94096       59.88680       47.29419
H         69.39131       61.70976       47.93999
N         66.75129       58.73585       42.40384
C         65.40033       58.54690       42.91941
C         65.02495       57.08125       43.05354
O         64.10199       56.77811       43.79483
C         64.51948       59.28584       41.90648
C         65.29326       59.09795       40.61770
C         66.73322       59.32617       41.07838
H         65.28851       59.02677       43.91748
H         63.45208       58.97637       41.88542
H         64.56443       60.37439       42.13540
H         65.18236       58.03107       40.31512
H         64.97656       59.73405       39.76440
H         67.39555       58.81762       40.35102
H         66.97780       60.40548       41.16006
N         65.68574       56.12001       42.35613
C         65.40118       54.69821       42.49561
C         65.88120       54.24039       43.85364
O         65.10151       53.68756       44.61678
C         66.11442       53.90255       41.39062
C         65.64423       54.35320       40.00032
C         66.40285       53.69237       38.90367
O         66.26149       54.17843       37.67014
O         67.17921       52.77737       39.11198
H         66.42368       56.41142       41.70196
H         64.30992       54.50895       42.37399
H         65.91252       52.81549       41.51378
H         67.20916       54.07090       41.46339
H         65.82734       55.43821       39.87460
H         64.55569       54.17714       39.85881
N         67.16942       54.47462       44.22798
C         67.69552       54.09525       45.51689
H         68.75248       54.43006       45.59998
H         67.10731       54.58183       46.32304
H         67.65930       52.99241       45.63037
H         67.80128       54.96479       43.58128
Ca        67.42932       53.47360       35.92083
O         68.30090       50.28289       35.31514
H         68.74386       49.76503       36.03073
H         67.70237       49.62775       34.87693
O         67.34289       50.08080       38.28726
H         67.25198       49.25286       38.82043
H         68.24554       50.41960       38.50569

Ca 1.0



