%chk=holoCaM-CaMKII.loop2.water2.frame250.chk
%nprocshared=20
%mem=10GB
%nosave
#b3lyp/svp scf=(tight,noincore,xqc) Test 
#IOP(5/87=12) Density=Current Pop=(MK,readradii) iop(6/33=2) iop(6/42=6)

holoCaM-CaMKII.loop2.water2.frame250 

   -2  1 
C        104.44955       14.53497       44.31403
C        104.90389       13.90356       43.02893
O        105.42474       12.79895       43.06081
H        103.69235       13.87964       44.79579
H        105.30988       14.66793       44.99984
H        103.97907       15.52583       44.13518
N        104.69296       14.53727       41.84448
C        104.98329       13.93040       40.55275
C        106.48603       13.77496       40.31592
O        107.20146       14.76248       40.41134
C        104.36684       14.79663       39.43246
C        104.26995       14.05780       38.13239
O        103.83702       14.62378       37.14222
O        104.56983       12.74798       38.07188
H        104.22471       15.45697       41.86325
H        104.46512       12.94522       40.53152
H        104.95509       15.73242       39.31260
H        103.32438       15.07304       39.69908
N        107.01996       12.57014       39.95607
C        108.44098       12.34608       39.68623
C        108.71952       11.90832       38.24332
O        109.88210       11.69580       37.92547
C        108.95721       11.27239       40.65134
H        106.38559       11.76953       39.86076
H        109.02220       13.27687       39.86351
H        108.42242       10.31172       40.48356
H        110.04565       11.10187       40.50439
H        108.79424       11.59210       41.70200
N        107.72732       11.74446       37.31795
C        107.96582       11.19581       35.97869
C        106.95477       11.62935       34.90512
O        107.12859       11.21620       33.76602
C        108.04085        9.65665       36.05407
C        106.81834        8.99735       36.63067
O        106.77537        7.77880       36.68279
O        105.79779        9.70646       37.15054
H        106.76552       11.88104       37.62735
H        108.94969       11.55995       35.60763
H        108.90337        9.35885       36.68742
H        108.21842        9.25088       35.03433
N        105.91074       12.47115       35.15284
C        104.99756       12.95055       34.12768
C        104.10925       11.90747       33.46795
O        103.39276       12.30523       32.55967
H        105.79177       12.87646       36.07997
H        105.59951       13.45039       33.33740
H        104.32803       13.71872       34.57153
N        104.09205       10.58019       33.80624
C        103.32053        9.61604       33.01466
C        101.79968        9.80527       33.07489
O        101.12208        9.20105       32.25430
C        103.69721        8.15075       33.33369
C        103.29842        7.65249       34.69814
N        103.44970        6.34248       34.99514
O        102.81977        8.40813       35.52692
H        104.69979       10.23660       34.56276
H        103.62954        9.77559       31.95687
H        104.79186        8.00497       33.20658
H        103.18163        7.50645       32.58894
H        103.84418        5.68772       34.30536
H        103.14377        5.97005       35.90142
N        101.18920       10.59294       34.00910
C         99.75171       10.84292       34.04578
C         99.04524       10.29508       35.27886
O         97.85126       10.52505       35.39206
H        101.76428       11.05551       34.71866
H         99.24350       10.39851       33.16267
H         99.59605       11.94170       33.99699
N         99.68174        9.51851       36.20505
C         99.00595        8.87667       37.33868
C         99.70141        9.21369       38.65221
O        100.69984        9.91536       38.63573
C         99.02650        7.33817       37.12371
C         98.26169        6.93236       35.86247
O        100.34758        6.86743       37.02070
H        100.67536        9.30856       36.07357
H         97.94699        9.20618       37.41481
H         98.50835        6.82322       37.96479
H        100.68682        6.74180       37.94530
H         97.20466        7.26697       35.93061
H         98.72551        7.37405       34.95542
H         98.27478        5.82651       35.75774
N         99.25757        8.67174       39.83091
C        100.00668        8.78069       41.07845
C        100.54728        7.39641       41.39568
O         99.79128        6.51669       41.78219
C         99.14600        9.36008       42.24135
C         98.65306       10.78653       41.88750
C         99.95378        9.36450       43.55929
C         97.71694       11.39676       42.93490
H         98.41592        8.07827       39.82787
H        100.87341        9.45983       40.93930
H         98.25908        8.70248       42.38116
H         98.09055       10.74845       40.93030
H         99.52232       11.46388       41.75259
H        100.29078        8.34129       43.82348
H        100.84569       10.02020       43.47148
H         99.33594        9.70450       44.41333
H         96.82745       10.74875       43.08244
H         98.23000       11.54675       43.90617
H         97.37639       12.39470       42.58713
N        101.86457        7.13061       41.17950
C        102.49131        5.83586       41.43015
C        102.68673        5.57419       42.90443
O        102.31390        6.39504       43.72659
C        103.81252        5.75504       40.63395
C        103.46159        5.40729       39.21568
O        103.58852        6.26905       38.20019
O        103.00076        4.30214       38.97656
H        102.43648        7.87541       40.75640
H        101.82227        5.01739       41.07929
H        104.48098        4.94274       40.98471
H        104.38105        6.70708       40.72869
N        103.20825        4.38136       43.30662
C        103.28300        3.96828       44.69781
C        104.16771        4.87902       45.54863
O        103.65206        5.37857       46.53865
C        103.73654        2.49540       44.80972
C        103.47699        1.94814       46.19049
C        104.53463        1.62632       47.05560
C        102.15188        1.74632       46.61775
C        104.26640        1.11863       48.33197
C        101.88928        1.22957       47.88749
C        102.94559        0.91816       48.74592
H        103.48842        3.70126       42.58289
H        102.24202        4.01094       45.09103
H        104.80200        2.40332       44.53486
H        103.17069        1.85795       44.09549
H        105.56176        1.77787       46.74829
H        101.32181        1.97796       45.96110
H        105.08217        0.87897       49.00090
H        100.86621        1.07004       48.20344
H        102.73926        0.52044       49.73084
N        105.48785        5.15713       45.27343
C        106.31400        5.98051       46.14857
C        105.88685        7.43637       46.13849
O        106.30158        8.17390       47.02232
C        107.72888        5.79311       45.58954
C        107.45793        5.63247       44.10722
C        106.23776        4.71190       44.11367
H        106.27671        5.60322       47.19463
H        108.46209        6.58054       45.86880
H        108.11847        4.81158       45.94345
H        107.15132        6.62807       43.71210
H        108.30876        5.26322       43.49639
H        105.70057        4.84858       43.15431
H        106.54918        3.65797       44.25975
N        105.08790        7.93031       45.15473
C        104.61445        9.30446       45.13038
C        103.57892        9.47507       46.22283
O        103.74464       10.33186       47.07878
C        104.03602        9.64608       43.74045
C        105.12368        9.50052       42.65452
C        104.63423        9.81755       41.27632
O        105.38668        9.65953       40.33118
O        103.38110       10.25583       41.05958
H        104.81026        7.30849       44.38306
H        105.46650       10.00386       45.29433
H        103.66486       10.69453       43.74894
H        103.18528        8.97242       43.50052
H        105.49605        8.45648       42.62886
H        105.98267       10.16720       42.88596
N        102.49932        8.64390       46.26823
C        101.48075        8.68131       47.29447
H        100.48932        8.83472       46.81968
H        101.47028        7.70653       47.82831
H        101.65518        9.48814       48.03470
H        102.40109        7.91776       45.55072
Ca       104.24857        8.38791       38.05672
O        101.76601       12.57489       39.81160
H        101.50235       12.02692       40.59109
H        101.36396       13.46203       39.98493
O        102.19984       11.68804       37.06484
H        101.32173       12.13354       36.96242
H        102.78190       12.13431       36.40047

Ca 1.0



