%chk=holoCaM.loop2.water4.frame403.chk
%nprocshared=20
%mem=10GB
%nosave
#b3lyp/svp scf=(tight,noincore,xqc) Test 
#IOP(5/87=12) Density=Current Pop=(MK,readradii) iop(6/33=2) iop(6/42=6)

holoCaM.loop2.water4.frame403 

   -2  1 
C        116.83455       77.35839       -1.65416
C        117.11837       78.72953       -2.18233
O        116.19161       79.48241       -2.44680
H        115.74162       77.18212       -1.57945
H        117.28240       76.60076       -2.33062
H        117.28658       77.25615       -0.64443
N        118.40681       79.12642       -2.34459
C        118.77452       80.45695       -2.80035
C        118.26858       80.69442       -4.21799
O        118.64741       79.95477       -5.11465
C        120.31138       80.60852       -2.70975
C        120.81569       82.01000       -2.86175
O        122.13486       82.23180       -2.78033
O        120.05628       82.95246       -2.99652
H        119.15364       78.45879       -2.09264
H        118.32210       81.19087       -2.10380
H        120.79965       79.95160       -3.46250
H        120.64641       80.28446       -1.70039
N        117.39418       81.70839       -4.48940
C        116.90576       82.00616       -5.83949
C        118.00049       82.53938       -6.75988
O        117.73159       82.73187       -7.93761
C        115.78744       83.05743       -5.79855
H        117.05174       82.26332       -3.69741
H        116.47619       81.07012       -6.25706
H        116.19242       84.04297       -5.49400
H        115.34193       83.19273       -6.80638
H        114.98315       82.74881       -5.09773
N        119.24282       82.83489       -6.28610
C        120.32718       83.38370       -7.08132
C        121.49241       82.41153       -7.16094
O        122.45729       82.73221       -7.84273
C        120.79911       84.69502       -6.41244
C        119.75448       85.77262       -6.47669
O        119.43884       86.22465       -7.56550
O        119.15924       86.27341       -5.37171
H        119.45053       82.68763       -5.29590
H        120.00165       83.58021       -8.12707
H        121.70985       85.08751       -6.91617
H        121.05980       84.48134       -5.35518
N        121.50144       81.21682       -6.49229
C        122.63178       80.30905       -6.53150
C        123.88647       80.91077       -5.92962
O        124.93491       80.30131       -6.08487
H        120.69585       80.92282       -5.93370
H        122.82214       80.04654       -7.59545
H        122.39264       79.36999       -5.98615
N        123.87184       82.10414       -5.25670
C        125.07767       82.80303       -4.84127
C        125.15929       82.94855       -3.31506
O        125.40370       84.03372       -2.80827
C        125.10108       84.13334       -5.62807
C        126.33160       84.96620       -5.40729
N        126.22518       86.22659       -4.92560
O        127.43048       84.51047       -5.68497
H        122.98075       82.58654       -5.08446
H        125.97426       82.21645       -5.13902
H        124.19263       84.71882       -5.37381
H        125.04386       83.90083       -6.71529
H        125.30383       86.62816       -4.69517
H        127.06453       86.80683       -4.78671
N        125.05206       81.83505       -2.53493
C        125.38942       81.73968       -1.11521
C        124.59828       82.51599       -0.06254
O        124.89515       82.27953        1.10011
H        124.83202       80.94401       -3.00687
H        126.46123       82.00927       -0.99478
H        125.29347       80.66719       -0.83596
N        123.64847       83.46071       -0.32685
C        122.97628       84.23154        0.73262
C        121.46024       84.19560        0.58541
O        120.96256       84.41564       -0.50862
C        123.48432       85.69141        0.74592
C        124.93644       85.76265        1.23957
O        123.37950       86.26048       -0.53144
H        123.44154       83.70514       -1.30233
H        123.21266       83.83168        1.74337
H        122.85836       86.26447        1.47044
H        123.54326       87.23407       -0.42690
H        125.26749       86.82123        1.29149
H        125.01018       85.33485        2.26374
H        125.61808       85.20501        0.56504
N        120.66386       83.97521        1.68014
C        119.20047       83.94780        1.63598
C        118.55883       85.04900        2.48950
O        118.68037       85.03338        3.70518
C        118.64373       82.54203        2.04293
C        119.25098       81.98790        3.36207
C        118.84113       81.55718        0.88070
C        118.55427       80.72429        3.87039
H        121.11704       83.83334        2.59464
H        118.85625       84.13982        0.60305
H        117.54823       82.64784        2.18776
H        119.15673       82.73655        4.17117
H        120.33055       81.76542        3.22090
H        118.34437       80.58647        1.07750
H        118.36225       81.97415       -0.02617
H        119.91823       81.38881        0.67438
H        117.48010       80.93242        4.05917
H        118.64825       79.88360        3.15534
H        119.02433       80.40585        4.82477
N        117.79457       86.01753        1.89306
C        116.94591       86.96523        2.62673
C        115.73676       86.24018        3.21708
O        115.63412       85.03781        3.05454
C        116.46453       88.09054        1.67564
C        117.57849       89.00415        1.23447
O        117.32716       89.94114        0.49447
O        118.83822       88.84070        1.68470
H        117.76084       86.04636        0.86329
H        117.51809       87.43986        3.45456
H        115.72916       88.74390        2.18708
H        115.96534       87.64230        0.78818
N        114.77719       86.91118        3.91914
C        113.61230       86.27472        4.53887
C        112.72205       85.51236        3.55270
O        112.46964       84.35153        3.84076
C        112.81790       87.30599        5.37619
C        111.57777       86.74202        6.04032
C        111.64396       85.60606        6.86926
C        110.33359       87.37001        5.84492
C        110.48773       85.10752        7.47916
C        109.18378       86.87586        6.46805
C        109.25993       85.74389        7.28200
H        114.89549       87.92673        4.05213
H        113.99163       85.52607        5.26996
H        112.53919       88.17876        4.75534
H        113.49591       87.68363        6.17146
H        112.58383       85.09955        7.04188
H        110.25250       88.25126        5.22075
H        110.54387       84.22887        8.10877
H        108.23323       87.37263        6.32114
H        108.36789       85.36157        7.76156
N        112.20490       86.03699        2.39255
C        111.38825       85.26691        1.45329
C        111.99387       83.91652        1.13400
O        111.30602       82.90504        1.15494
C        111.40121       86.12900        0.17796
C        111.45997       87.52347        0.74535
C        112.47652       87.36214        1.87459
H        110.35479       85.16877        1.85440
H        112.35740       85.99241       -0.37843
H        110.56771       85.92320       -0.52802
H        111.70548       88.32177        0.01228
H        110.46380       87.73671        1.19357
H        113.52026       87.37953        1.49224
H        112.31409       88.17713        2.60101
N        113.31459       83.86242        0.82898
C        114.03474       82.66875        0.42167
C        114.02981       81.64771        1.55116
O        113.61670       80.51771        1.33318
C        115.45910       83.05324       -0.08785
C        115.35453       84.16184       -1.16889
C        116.56992       84.45784       -1.99551
O        116.43418       84.48755       -3.20168
O        117.76320       84.82087       -1.49287
H        113.83063       84.74822        0.88976
H        113.51791       82.22585       -0.46011
H        115.92220       82.13859       -0.51738
H        116.09384       83.43584        0.73327
H        115.07816       85.12830       -0.70895
H        114.54286       83.87988       -1.87734
N        114.39841       82.00756        2.81042
C        114.31965       81.11826        3.94827
H        113.27524       80.76298        4.08186
H        114.99940       80.25403        3.80942
H        114.61636       81.66501        4.87111
H        114.69897       82.96677        2.98486
Ca       119.07763       85.55791       -3.20993
O        120.59514       87.16492       -0.51901
H        119.69580       87.31665       -0.13980
H        121.11050       87.97693       -0.28661
O        117.65429       87.94279       -2.09283
H        117.45588       88.89029       -1.89156
H        117.55460       87.87695       -3.07546
O        122.51328       85.68526       -3.44935
H        121.97786       85.76319       -2.62224
H        122.63200       84.71084       -3.56684
O        120.71681       88.26318       -3.21761
H        121.30725       88.98629       -2.88822
H        121.02524       88.08954       -4.14192

Ca 1.0



