%chk=holoCaM.loop2.water2.frame275.chk
%nprocshared=20
%mem=10GB
%nosave
#b3lyp/svp scf=(tight,noincore,xqc) Test 
#IOP(5/87=12) Density=Current Pop=(MK,readradii) iop(6/33=2) iop(6/42=6)

holoCaM.loop2.water2.frame275 

   -2  1 
C         54.65889       -3.17216       46.22383
C         54.50320       -4.31127       45.26238
O         53.51887       -5.03070       45.35724
H         55.55565       -2.56295       45.98429
H         53.76803       -2.51086       46.13851
H         54.73633       -3.55111       47.26116
N         55.40446       -4.49259       44.25664
C         55.12552       -5.37926       43.14133
C         55.46621       -6.84168       43.41308
O         56.61773       -7.17051       43.66105
C         55.87256       -4.90677       41.88699
C         55.27935       -5.51925       40.64939
O         55.78953       -5.27150       39.57183
O         54.14551       -6.27152       40.75166
H         56.18858       -3.82707       44.17824
H         54.04177       -5.25453       42.91382
H         56.95849       -5.12536       41.98828
H         55.75127       -3.80716       41.77101
N         54.48625       -7.77596       43.32249
C         54.67059       -9.21410       43.45944
C         55.13555       -9.87174       42.16261
O         55.96376      -10.76946       42.22703
C         53.32051       -9.84238       43.84109
H         53.53544       -7.43551       43.14910
H         55.35473       -9.44987       44.30548
H         52.55346       -9.64983       43.06031
H         53.41999      -10.94114       43.97322
H         52.96385       -9.40735       44.79979
N         54.52664       -9.57008       40.97473
C         54.64673      -10.38556       39.76071
C         55.15404       -9.66173       38.50638
O         55.26074      -10.32203       37.48091
C         53.26887      -11.04382       39.49711
C         52.12737      -10.09123       39.22972
O         52.31382       -8.76434       39.19060
O         51.00439      -10.53205       39.05334
H         53.85162       -8.79723       40.97740
H         55.36295      -11.21864       39.93594
H         53.00167      -11.63903       40.39708
H         53.34724      -11.74086       38.63624
N         55.51509       -8.34643       38.48998
C         56.05581       -7.69136       37.29768
C         55.07892       -7.55466       36.13954
O         55.52374       -7.20973       35.05365
H         55.47179       -7.81325       39.36127
H         56.93754       -8.27527       36.95617
H         56.41492       -6.67092       37.54373
N         53.74560       -7.79892       36.27991
C         52.80214       -7.77753       35.16409
C         52.61788       -6.40733       34.48577
O         51.89945       -6.36159       33.49671
C         51.42969       -8.35003       35.60265
C         50.66428       -7.48804       36.57052
N         49.32682       -7.63475       36.68308
O         51.23272       -6.63109       37.22595
H         53.39816       -8.07086       37.20322
H         53.19430       -8.47901       34.39686
H         51.53758       -9.36785       36.03909
H         50.80775       -8.45397       34.68915
H         48.81924       -8.33999       36.13078
H         48.79042       -7.00289       37.28798
N         53.18842       -5.25694       34.95424
C         53.03378       -3.95380       34.31258
C         52.08556       -3.02128       35.05384
O         51.91007       -1.90037       34.59847
H         53.75342       -5.28707       35.80507
H         52.63252       -4.06486       33.28298
H         54.03766       -3.48483       34.22113
N         51.38416       -3.43129       36.14892
C         50.35305       -2.63070       36.81673
C         50.39376       -2.80613       38.32616
O         51.07088       -3.68743       38.83017
C         48.91465       -3.04305       36.32049
C         48.61842       -2.54236       34.91159
O         48.64475       -4.42506       36.38909
H         51.52685       -4.39160       36.47037
H         50.51555       -1.54978       36.61374
H         48.15367       -2.55399       36.96134
H         49.47587       -4.92972       36.53374
H         48.63561       -1.43099       34.90935
H         49.34734       -2.93095       34.17440
H         47.59725       -2.86731       34.61385
N         49.57861       -2.03413       39.09863
C         49.23398       -2.36138       40.47131
C         48.01185       -3.24571       40.40793
O         47.05866       -2.94617       39.70061
C         49.06211       -1.08187       41.36264
C         50.42860       -0.77106       42.03504
C         47.95874       -1.24279       42.43516
C         50.43561        0.45587       42.94735
H         48.98880       -1.33234       38.62582
H         50.01956       -2.99422       40.93832
H         48.73190       -0.23252       40.72487
H         51.19660       -0.62845       41.24577
H         50.73362       -1.64275       42.66023
H         47.81106       -0.30210       43.00220
H         46.97656       -1.44011       41.95484
H         48.19545       -2.06565       43.13975
H         50.13798        1.36074       42.38093
H         49.76145        0.31727       43.81829
H         51.45809        0.59923       43.35627
N         47.98458       -4.35516       41.18783
C         46.89351       -5.29547       41.24025
C         46.06127       -5.01499       42.48134
O         46.42129       -4.13807       43.24855
C         47.48186       -6.72337       41.26584
C         48.32121       -7.07781       40.05454
O         49.65605       -6.78903       39.96119
O         47.82363       -7.82917       39.23320
H         48.75042       -4.50571       41.85021
H         46.22398       -5.16494       40.36118
H         46.62511       -7.42931       41.31063
H         48.09202       -6.89384       42.17959
N         44.90052       -5.68505       42.72202
C         44.07609       -5.43629       43.90358
C         44.83098       -5.79580       45.19027
O         44.89176       -4.93302       46.05441
C         42.72015       -6.16352       43.78575
C         41.85860       -5.96332       45.00749
C         41.29925       -4.70815       45.30718
C         41.61239       -7.04816       45.86452
C         40.49883       -4.55026       46.44464
C         40.82426       -6.88293       47.00442
C         40.26408       -5.63650       47.29317
H         44.58256       -6.37837       42.02808
H         43.82398       -4.35088       43.94069
H         42.87526       -7.23844       43.62108
H         42.17109       -5.80245       42.88862
H         41.47143       -3.85823       44.65813
H         42.04291       -8.01985       45.65640
H         40.05979       -3.58671       46.66983
H         40.64909       -7.72370       47.66246
H         39.64880       -5.51400       48.17483
N         45.45078       -7.00380       45.40886
C         46.25047       -7.31207       46.59537
C         47.27497       -6.24099       46.92547
O         47.40865       -5.84744       48.07457
C         46.99520       -8.60034       46.19438
C         45.98190       -9.27989       45.31549
C         45.48169       -8.11431       44.47353
H         45.57492       -7.50078       47.45801
H         47.85825       -8.36698       45.52718
H         47.37494       -9.20185       47.04688
H         46.35531      -10.14388       44.72542
H         45.15053       -9.62460       45.97257
H         46.18064       -7.86741       43.64779
H         44.50160       -8.41667       44.07929
N         48.04989       -5.74971       45.92790
C         49.13675       -4.79170       46.10161
C         48.59778       -3.44200       46.54757
O         49.24429       -2.77381       47.34124
C         49.91301       -4.68015       44.77528
C         50.45204       -6.07532       44.35186
C         50.96586       -6.12464       42.95822
O         51.01011       -5.12309       42.27045
O         51.29441       -7.31688       42.42869
H         47.83939       -6.08981       44.97822
H         49.85887       -5.17498       46.85659
H         50.76224       -3.96549       44.86316
H         49.21328       -4.28858       44.01031
H         49.65608       -6.83933       44.35257
H         51.23367       -6.42079       45.05898
N         47.38546       -3.00755       46.10266
C         46.74429       -1.77797       46.51251
H         45.77516       -2.02464       46.99885
H         47.36055       -1.19563       47.22611
H         46.53715       -1.15713       45.61570
H         46.85918       -3.59607       45.45499
Ca        51.94187       -6.21341       39.97306
O         53.54870       -4.66020       38.17365
H         54.07379       -5.47993       37.99671
H         54.00375       -3.94650       37.66185
O         53.01891       -3.53872       40.92737
H         53.18471       -2.63061       40.57615
H         52.59974       -3.38653       41.80863

Ca 1.0



