%chk=holoCaM.loop2.water1.frame129.chk
%nprocshared=20
%mem=10GB
%nosave
#b3lyp/svp scf=(tight,noincore,xqc) Test 
#IOP(5/87=12) Density=Current Pop=(MK,readradii) iop(6/33=2) iop(6/42=6)

holoCaM.loop2.water1.frame129 

   -2  1 
C          8.28626       75.83276       -7.93729
C          9.39995       74.82054       -7.96999
O          9.66613       74.19299       -6.95726
H          7.33650       75.32850       -7.65715
H          8.50979       76.62976       -7.20013
H          8.13640       76.30523       -8.93267
N         10.07147       74.58739       -9.12838
C         11.07508       73.54245       -9.30045
C         12.33846       73.74754       -8.46355
O         12.96537       74.79339       -8.55026
C         11.44214       73.44688      -10.78886
C         12.42894       72.35341      -11.01865
O         13.50119       72.59656      -11.54743
O         12.14781       71.10802      -10.59589
H          9.79736       75.13822       -9.95742
H         10.60577       72.56997       -9.02758
H         11.85671       74.41279      -11.15146
H         10.52318       73.21286      -11.36929
N         12.79351       72.72244       -7.68302
C         14.00577       72.73842       -6.87312
C         14.96565       71.58150       -7.22142
O         15.91450       71.38892       -6.47270
C         13.58152       72.64624       -5.40072
H         12.24043       71.86079       -7.65246
H         14.55868       73.69602       -6.98829
H         14.46785       72.69537       -4.73193
H         12.92040       73.50361       -5.14776
H         13.03128       71.70167       -5.20231
N         14.81953       70.79189       -8.33651
C         15.70833       69.64556       -8.62183
C         15.71927       69.10812      -10.07399
O         16.47927       68.18187      -10.32366
C         15.38629       68.48706       -7.65089
C         13.98007       67.97631       -7.79475
O         13.12446       68.52539       -8.67654
O         13.59197       67.07286       -7.07201
H         14.06021       71.02559       -8.97699
H         16.75742       69.97230       -8.44758
H         15.52017       68.82676       -6.60285
H         16.08998       67.64366       -7.82145
N         14.98430       69.64440      -11.08862
C         15.09790       69.24346      -12.48505
C         14.53399       67.88352      -12.85918
O         14.64619       67.54583      -14.02982
H         14.39726       70.45030      -10.90942
H         16.16644       69.29871      -12.78409
H         14.54172       69.98204      -13.10444
N         13.90149       67.05254      -11.97871
C         13.36456       65.74844      -12.39104
C         12.17764       65.84432      -13.36679
O         11.71170       64.80878      -13.82139
C         12.97011       64.91013      -11.15306
C         11.78191       65.43639      -10.38760
N         11.36934       64.80106       -9.26914
O         11.17759       66.42386      -10.77575
H         13.83280       67.33149      -10.99015
H         14.19013       65.19374      -12.89081
H         13.84614       64.85755      -10.47003
H         12.72856       63.87406      -11.47548
H         11.86564       63.96838       -8.92093
H         10.54990       65.14440       -8.75112
N         11.62774       67.04279      -13.71731
C         10.49761       67.20040      -14.61872
C          9.19287       66.70393      -14.03111
O          8.46196       66.01563      -14.72328
H         12.02262       67.91382      -13.34119
H         10.71206       66.73911      -15.60767
H         10.35406       68.29003      -14.78672
N          8.80727       67.12433      -12.79203
C          7.51025       66.88287      -12.14355
C          7.34535       67.77957      -10.89818
O          8.29864       68.39965      -10.44627
C          7.30155       65.39428      -11.69938
C          6.99083       64.39409      -12.81494
O          8.41220       64.93256      -10.97401
H          9.47972       67.72590      -12.31158
H          6.70484       67.20161      -12.84048
H          6.38945       65.33728      -11.06281
H          8.35910       65.33223      -10.06822
H          6.72279       63.41444      -12.36353
H          6.12062       64.74343      -13.41254
H          7.85927       64.19585      -13.46460
N          6.13603       67.85004      -10.26778
C          5.90495       68.55468       -9.00807
C          5.85889       67.51689       -7.90274
O          5.20885       66.48999       -8.04426
C          4.63003       69.45980       -9.06017
C          4.91111       70.70124       -9.95315
C          4.20710       69.90508       -7.63994
C          3.73422       71.67656      -10.07968
H          5.35157       67.30036      -10.65029
H          6.75746       69.22487       -8.76419
H          3.78370       68.87111       -9.47729
H          5.18582       70.36118      -10.97379
H          5.77238       71.27033       -9.53498
H          3.98191       69.02646       -7.00077
H          5.00177       70.50851       -7.15753
H          3.26709       70.49007       -7.65995
H          3.47000       72.13022       -9.10181
H          4.01998       72.51541      -10.74911
H          2.84603       71.16453      -10.50302
N          6.54058       67.76038       -6.74916
C          6.68460       66.82793       -5.64264
C          5.90518       67.33059       -4.44329
O          5.24996       68.36027       -4.54310
C          8.17509       66.74588       -5.25007
C          9.10450       66.52487       -6.39911
O          9.12812       67.42998       -7.39412
O          9.92521       65.62280       -6.36705
H          7.00304       68.67251       -6.64306
H          6.30751       65.82115       -5.92761
H          8.33786       65.96680       -4.47567
H          8.47539       67.72736       -4.82162
N          5.93527       66.65465       -3.26064
C          5.21026       67.10580       -2.08312
C          5.65779       68.49488       -1.62011
O          4.77601       69.32881       -1.48537
C          5.26793       66.06620       -0.94131
C          4.49643       66.55085        0.26273
C          3.11548       66.80052        0.17121
C          5.15671       66.78138        1.48179
C          2.41077       67.27826        1.27789
C          4.44661       67.25858        2.58701
C          3.07537       67.50808        2.48475
H          6.47458       65.77708       -3.20224
H          4.13646       67.17635       -2.36754
H          6.30749       65.84535       -0.65245
H          4.83436       65.10542       -1.29276
H          2.58405       66.63164       -0.75658
H          6.22112       66.60284        1.57494
H          1.34944       67.47310        1.19705
H          4.96082       67.43938        3.52172
H          2.52761       67.88082        3.33985
N          6.95455       68.84981       -1.33398
C          7.33307       70.19219       -0.90101
C          6.91085       71.25630       -1.89694
O          6.32023       72.25475       -1.50869
C          8.86847       70.14150       -0.82058
C          9.11599       68.68953       -0.49330
C          8.12379       67.99807       -1.42265
H          6.90625       70.37803        0.11029
H          9.32116       70.30201       -1.82540
H          9.31573       70.88060       -0.12094
H         10.16957       68.35640       -0.60658
H          8.79209       68.51422        0.55859
H          8.48905       68.00066       -2.47184
H          7.99345       66.96826       -1.06603
N          7.20210       71.08593       -3.21757
C          6.93261       72.07904       -4.25443
C          5.44050       72.31858       -4.45879
O          5.08882       73.28118       -5.12650
C          7.52011       71.61788       -5.60732
C          9.02678       71.28674       -5.56397
C          9.52584       70.69080       -6.84894
O          8.80544       70.58034       -7.82878
O         10.77914       70.21038       -6.89346
H          7.65954       70.20266       -3.47836
H          7.42349       73.02923       -3.94765
H          7.33824       72.39153       -6.38583
H          6.97429       70.70166       -5.89658
H          9.24144       70.52267       -4.79554
H          9.61684       72.19131       -5.31143
N          4.50760       71.45314       -3.97437
C          3.08892       71.62823       -4.18412
H          2.53618       70.77854       -3.72671
H          2.74917       72.57134       -3.70888
H          2.86465       71.64829       -5.27123
H          4.80526       70.61728       -3.46650
Ca        11.02088       67.84182       -8.46881
O         10.46139       69.81687      -12.03881
H          9.69116       70.32517      -11.68154
H         10.69769       70.26736      -12.88637

Ca 1.0



