%chk=holoCaM.loop2.water2.frame288.chk
%nprocshared=20
%mem=10GB
%nosave
#b3lyp/svp scf=(tight,noincore,xqc) Test 
#IOP(5/87=12) Density=Current Pop=(MK,readradii) iop(6/33=2) iop(6/42=6)

holoCaM.loop2.water2.frame288 

   -2  1 
C         27.08612       55.98566       56.55153
C         27.70501       54.82425       55.82751
O         27.51925       53.69431       56.25115
H         25.98249       55.85622       56.57248
H         27.46930       56.03769       57.59010
H         27.30673       56.94700       56.03967
N         28.42801       55.03086       54.69462
C         28.93574       53.95048       53.85975
C         30.00684       53.11670       54.56041
O         31.01394       53.67948       54.96721
C         29.53695       54.54533       52.56588
C         29.77215       53.50157       51.51840
O         30.30591       53.80530       50.46429
O         29.32702       52.24645       51.70244
H         28.55091       56.00270       54.36962
H         28.06394       53.32142       53.57465
H         30.48665       55.07118       52.80569
H         28.84060       55.28545       52.12059
N         29.87884       51.76034       54.67844
C         30.90979       50.89361       55.24601
C         31.43478       49.84743       54.25365
O         32.36904       49.14650       54.61812
C         30.33815       50.18318       56.47842
H         29.01640       51.31923       54.34375
H         31.78198       51.50135       55.56956
H         29.98838       50.92979       57.22232
H         29.47709       49.54079       56.18930
H         31.11012       49.54532       56.96001
N         30.87227       49.63855       53.02261
C         31.28792       48.56738       52.11118
C         31.58924       49.03082       50.67812
O         31.99037       48.19004       49.88443
C         30.21277       47.45589       52.12801
C         28.80963       47.96315       51.92455
O         28.50311       48.56373       50.91252
O         27.88371       47.77020       52.88305
H         30.04826       50.18451       52.75246
H         32.22936       48.09532       52.46908
H         30.24079       46.96839       53.12634
H         30.45356       46.67769       51.37149
N         31.45328       50.32421       50.26569
C         31.79456       50.79115       48.92423
C         30.96397       50.22859       47.77351
O         31.27548       50.57734       46.64321
H         31.16744       51.03461       50.94270
H         32.86331       50.55007       48.73385
H         31.69191       51.89768       48.89310
N         29.93163       49.35004       47.94509
C         29.23761       48.71857       46.81842
C         28.41708       49.67306       45.94320
O         27.95231       49.23353       44.90064
C         28.36974       47.52506       47.29278
C         27.21016       47.85941       48.19992
N         26.36738       46.87635       48.59010
O         27.02175       49.00134       48.58502
H         29.69188       49.05181       48.89404
H         30.02476       48.27807       46.16724
H         29.01974       46.79777       47.82628
H         27.95780       47.01722       46.39483
H         26.51271       45.90504       48.28102
H         25.55739       47.08238       49.18813
N         28.17022       50.96485       46.29829
C         27.43679       51.91317       45.47098
C         26.05159       52.23549       46.00498
O         25.44794       53.16582       45.49009
H         28.51860       51.30891       47.19482
H         27.31282       51.54908       44.42833
H         28.04311       52.84385       45.41606
N         25.44344       51.46873       46.95980
C         24.08107       51.69747       47.44181
C         24.03155       51.73163       48.98862
O         25.18314       52.24581       49.57096
C         23.16022       50.54749       46.94865
C         22.99377       50.56717       45.42915
O         23.68148       49.29659       47.32682
H         25.93538       50.64552       47.31629
H         23.69367       52.66848       47.06087
H         22.13283       50.66065       47.36022
H         23.50992       49.18525       48.29792
H         22.54212       51.53013       45.10844
H         23.96886       50.43149       44.91676
H         22.31478       49.74373       45.11888
N         22.85306       52.42946       49.50824
C         22.61706       52.19705       50.94851
C         22.18465       50.75670       51.23875
O         21.27327       50.25280       50.59776
C         21.59292       53.25787       51.45992
C         22.27402       54.65696       51.42058
C         21.09598       52.93500       52.88316
C         21.37033       55.82340       51.81915
H         21.99142       52.18063       48.97206
H         23.54782       52.38320       51.52429
H         20.70270       53.25045       50.79232
H         22.63861       54.86140       50.39107
H         23.15421       54.65791       52.10184
H         20.34247       53.67123       53.22443
H         20.57379       51.95716       52.89381
H         21.93956       52.91106       53.60318
H         20.49217       55.87837       51.14379
H         21.03181       55.73804       52.87111
H         21.94534       56.77063       51.73793
N         22.74536       50.09185       52.29707
C         22.31350       48.78447       52.78547
C         21.48276       48.96492       54.05811
O         21.32828       50.08590       54.50993
C         23.53587       47.90462       53.13771
C         24.40389       47.43260       52.00189
O         25.18990       48.24444       51.26708
O         24.47326       46.23240       51.78837
H         23.43443       50.59373       52.87378
H         21.66280       48.27702       52.03993
H         23.14899       46.98147       53.61768
H         24.17378       48.42405       53.88582
N         20.88937       47.90037       54.67885
C         20.08443       48.02780       55.89527
C         20.90831       48.47647       57.10457
O         20.48939       49.44478       57.72235
C         19.29032       46.73077       56.18918
C         18.41335       46.84659       57.42255
C         17.43068       47.85102       57.52182
C         18.56809       45.94059       58.48813
C         16.63069       47.94969       58.66474
C         17.75919       46.03872       59.62544
C         16.79341       47.04371       59.71474
H         20.97676       46.96832       54.24634
H         19.30689       48.79982       55.70213
H         19.96888       45.86602       56.29567
H         18.63650       46.51719       55.31643
H         17.28143       48.56238       56.72084
H         19.31086       45.15433       58.43967
H         15.88225       48.72868       58.73568
H         17.88087       45.33491       60.43884
H         16.17000       47.11965       60.59667
N         22.06540       47.86200       57.52622
C         22.86203       48.31648       58.66660
C         23.11091       49.80944       58.63857
O         22.92678       50.48699       59.63961
C         24.20173       47.58131       58.48557
C         23.76187       46.28298       57.86146
C         22.72414       46.76062       56.85096
H         22.36415       48.00280       59.61133
H         24.82483       48.08910       57.71310
H         24.81067       47.49373       59.41072
H         24.57714       45.66585       57.42609
H         23.24224       45.69386       58.65013
H         23.20680       47.15681       55.93442
H         22.06974       45.90718       56.60928
N         23.50932       50.37541       57.47073
C         23.79874       51.78727       57.27839
C         22.56119       52.61859       57.57393
O         22.62936       53.52138       58.39533
C         24.27177       52.02667       55.82553
C         25.52291       51.19130       55.45680
C         25.94365       51.38304       54.03073
O         25.38933       52.19859       53.31472
O         26.91744       50.61017       53.51930
H         23.58246       49.74584       56.66064
H         24.62717       52.09364       57.95577
H         24.49917       53.10694       55.69018
H         23.45278       51.74975       55.12758
H         25.32069       50.10938       55.56152
H         26.36962       51.43620       56.12962
N         21.38383       52.33695       56.94978
C         20.14466       53.05128       57.16816
H         19.38526       52.34812       57.57291
H         20.26210       53.89614       57.87638
H         19.77666       53.44543       56.19724
H         21.35092       51.55183       56.29581
Ca        25.48626       50.44157       50.90061
O         27.88793       52.35005       49.29697
H         28.67600       51.75253       49.34749
H         28.19927       53.13763       48.78396
O         26.46234       54.04785       51.41998
H         26.71440       54.94625       51.09332
H         25.48038       54.09462       51.52682

Ca 1.0



