%chk=holoCaM.loop2.water1.frame4.chk
%nprocshared=20
%mem=10GB
%nosave
#b3lyp/svp scf=(tight,noincore,xqc) Test 
#IOP(5/87=12) Density=Current Pop=(MK,readradii) iop(6/33=2) iop(6/42=6)

holoCaM.loop2.water1.frame4 

   -2  1 
C         91.37936       42.95681       47.02945
C         92.69942       42.29278       46.77352
O         92.73277       41.12239       46.42138
H         90.53891       42.24889       46.87368
H         91.34848       43.32630       48.07685
H         91.25924       43.81930       46.33998
N         93.84499       43.00384       46.94446
C         95.17939       42.45977       46.72345
C         95.42642       41.27406       47.64921
O         95.27388       41.42645       48.85342
C         96.21689       43.57037       46.97138
C         97.61925       43.20190       46.59903
O         97.88047       42.15176       46.03424
O         98.60127       44.07330       46.87381
H         93.75427       43.98840       47.24314
H         95.26465       42.15311       45.66283
H         96.18970       43.85519       48.04491
H         95.95710       44.46601       46.36515
N         95.80884       40.06239       47.14728
C         95.98448       38.86409       47.96242
C         97.42692       38.37604       48.01657
O         97.68881       37.47861       48.80599
C         95.08025       37.75424       47.41772
H         95.96906       39.98287       46.13893
H         95.68648       39.07969       49.01129
H         95.37653       37.49764       46.37616
H         95.15632       36.83986       48.04347
H         94.02246       38.09180       47.40966
N         98.41470       38.90666       47.23657
C         99.82246       38.52234       47.34793
C        100.70467       39.71220       47.72348
O        101.90628       39.52880       47.86117
C        100.29884       37.81866       46.05841
C        100.29390       38.65281       44.80309
O         99.91663       39.94502       44.81183
O        100.65383       38.14512       43.75349
H         98.16964       39.61930       46.53910
H         99.95220       37.77584       48.16221
H         99.65034       36.93051       45.89256
H        101.33639       37.45104       46.21877
N        100.17640       40.95033       47.95044
C        100.95017       42.09248       48.39175
C        101.98013       42.55643       47.39010
O        103.14359       42.61881       47.76246
H         99.16363       41.09934       47.87827
H        101.43853       41.84550       49.36058
H        100.26077       42.94258       48.58048
N        101.62949       42.95763       46.12753
C        102.59520       43.56637       45.20544
C        102.24155       45.00800       44.83700
O        103.10790       45.69632       44.31581
C        102.78932       42.73163       43.92699
C        101.63377       42.85092       42.96031
N        101.82079       43.44100       41.75504
O        100.52763       42.43270       43.26616
H        100.64836       42.85049       45.83630
H        103.58455       43.60624       45.70980
H        102.97683       41.66643       44.18089
H        103.70286       43.11566       43.42295
H        102.74086       43.81855       41.48431
H        101.04485       43.53660       41.08898
N        100.99119       45.51980       45.03340
C        100.61305       46.88770       44.72835
C         99.49915       46.99630       43.70580
O         99.05690       48.11662       43.49226
H        100.25507       44.92992       45.42534
H        101.47553       47.48507       44.36433
H        100.25554       47.35026       45.67323
N         99.00035       45.92217       43.01793
C         97.92275       46.05532       42.03515
C         96.74929       45.15019       42.36743
O         96.83939       44.31826       43.26135
C         98.43268       45.69817       40.60847
C         99.61174       46.56325       40.16804
O         98.81070       44.34720       40.54354
H         99.40604       44.98628       43.16586
H         97.54465       47.09966       42.01065
H         97.62657       45.89440       39.86196
H         98.02253       43.83610       40.22193
H         99.90863       46.28577       39.13297
H         99.32408       47.63533       40.17634
H        100.48560       46.40910       40.83492
N         95.64225       45.20944       41.57787
C         94.59957       44.19909       41.55596
C         94.79625       43.47521       40.24315
O         94.70945       44.11540       39.20205
C         93.17660       44.83558       41.64781
C         92.97003       45.51815       43.02272
C         92.08293       43.77229       41.39356
C         91.65203       46.29577       43.12555
H         95.60408       45.93353       40.84337
H         94.72136       43.47466       42.38872
H         93.09053       45.60681       40.84942
H         93.79060       46.24648       43.19406
H         93.00707       44.75556       43.83224
H         91.06987       44.21926       41.38335
H         92.20621       43.31212       40.39301
H         92.12114       42.97311       42.16318
H         91.58748       46.78789       44.11826
H         91.60596       47.07859       42.33859
H         90.76856       45.63280       43.03222
N         95.06714       42.14050       40.20888
C         95.17992       41.41836       38.95199
C         93.81008       40.90188       38.55625
O         92.87666       41.02912       39.33171
C         96.26048       40.31354       39.02390
C         97.65254       40.89117       39.18379
O         98.37794       40.98095       38.20707
O         98.14834       41.23325       40.39122
H         95.06158       41.60332       41.08684
H         95.47416       42.11991       38.14011
H         96.24016       39.77372       38.05414
H         96.04456       39.56186       39.81561
N         93.59582       40.37100       37.32211
C         92.27835       39.94060       36.86163
C         91.69210       38.85558       37.76469
O         90.57068       39.05565       38.20926
C         92.33167       39.53308       35.37075
C         91.02197       38.97654       34.86057
C         89.84432       39.74641       34.87217
C         90.97562       37.66281       34.36205
C         88.64472       39.20460       34.39568
C         89.77678       37.12748       33.88651
C         88.61167       37.89674       33.90347
H         94.39562       40.30453       36.67376
H         91.58804       40.81474       36.90539
H         93.13182       38.79278       35.20345
H         92.60751       40.42487       34.76611
H         89.85128       40.76152       35.24799
H         91.86833       37.05004       34.34204
H         87.73941       39.79782       34.40681
H         89.75308       36.11495       33.50506
H         87.68421       37.47839       33.53439
N         92.35919       37.70972       38.11774
C         91.82009       36.69215       39.01687
C         91.18563       37.25904       40.27624
O         90.05664       36.90789       40.58818
C         93.05269       35.85036       39.37689
C         93.84211       35.90391       38.09343
C         93.70995       37.37213       37.71164
H         91.08087       36.07999       38.45268
H         93.67129       36.37638       40.13981
H         92.81999       34.83264       39.75459
H         94.88928       35.53959       38.15386
H         93.29189       35.29488       37.33938
H         94.42103       38.01277       38.27540
H         93.89402       37.44485       36.62750
N         91.85888       38.17083       41.02908
C         91.32917       38.77990       42.24823
C         90.03610       39.51858       41.95774
O         89.03341       39.22043       42.59068
C         92.36398       39.75495       42.83863
C         93.63284       39.02448       43.31724
C         94.73649       39.98111       43.63432
O         94.57957       41.18515       43.51808
O         95.97176       39.50260       43.82776
H         92.79004       38.46105       40.69319
H         91.13030       37.99204       43.00893
H         91.93803       40.31137       43.70218
H         92.63090       40.49094       42.04690
H         94.02745       38.38108       42.50462
H         93.41309       38.37669       44.19226
N         89.98606       40.48358       40.99830
C         88.78883       41.22060       40.65441
H         87.92344       40.94318       41.29094
H         88.98195       42.30729       40.77269
H         88.52779       41.01691       39.59438
H         90.83315       40.70028       40.46428
Ca        97.27608       40.26790       42.20325
O         98.22336       37.61566       41.29767
H         97.71858       37.44593       42.13279
H         98.97748       38.19365       41.57691

Ca 1.0



