%chk=holoCaM-CaMKII.loop2.water2.frame488.chk
%nprocshared=20
%mem=10GB
%nosave
#b3lyp/svp scf=(tight,noincore,xqc) Test 
#IOP(5/87=12) Density=Current Pop=(MK,readradii) iop(6/33=2) iop(6/42=6)

holoCaM-CaMKII.loop2.water2.frame488 

   -2  1 
C         72.27869       83.26589      107.18530
C         71.66135       83.87453      108.41066
O         72.37637       84.38989      109.25523
H         73.38463       83.36349      107.20338
H         72.00910       82.19112      107.12080
H         71.89268       83.78833      106.28321
N         70.31083       83.85920      108.55684
C         69.60246       84.50068      109.65896
C         69.97880       83.91894      111.01401
O         69.79748       82.72719      111.22149
C         68.08454       84.35553      109.43119
C         67.28841       85.02589      110.50489
O         67.42916       86.21865      110.72023
O         66.41805       84.30611      111.23769
H         69.75811       83.40374      107.81283
H         69.84288       85.58555      109.64217
H         67.81142       83.27825      109.39289
H         67.80995       84.81292      108.45819
N         70.45940       84.73461      112.00128
C         70.75721       84.28202      113.35600
C         69.91823       84.99438      114.42199
O         70.02715       84.60146      115.57557
C         72.24527       84.51312      113.64159
H         70.61607       85.72767      111.78568
H         70.54851       83.19428      113.44755
H         72.86642       83.97367      112.89580
H         72.48495       85.59803      113.58361
H         72.51431       84.14434      114.65456
N         69.10564       86.06174      114.14247
C         68.36194       86.79940      115.17144
C         66.86914       86.96264      114.86240
O         66.17341       87.55649      115.67513
C         69.04276       88.16507      115.42629
C         69.12724       89.10483      114.25206
O         69.71731       90.30309      114.41810
O         68.68686       88.80304      113.15603
H         69.06704       86.41683      113.17996
H         68.41541       86.25791      116.14119
H         70.08119       87.97150      115.77245
H         68.50686       88.68613      116.24915
N         66.29574       86.44863      113.73721
C         64.87047       86.53176      113.43429
C         64.33741       87.92188      113.11505
O         63.14391       88.02083      112.86604
H         66.87704       85.90616      113.09392
H         64.29804       86.10442      114.28569
H         64.66188       85.90306      112.54179
N         65.12429       89.03679      113.09813
C         64.60210       90.38222      112.84026
C         64.14416       90.63155      111.39603
O         63.71196       91.74262      111.11880
C         65.62620       91.45360      113.28625
C         66.94514       91.46242      112.55795
N         67.87215       92.38962      112.88270
O         67.19101       90.64348      111.68754
H         66.11652       88.94133      113.34281
H         63.72124       90.54060      113.50162
H         65.83811       91.30544      114.36750
H         65.16293       92.45731      113.16923
H         67.68635       93.08476      113.61973
H         68.77592       92.41619      112.39668
N         64.17110       89.66710      110.43069
C         63.69318       89.88945      109.07188
C         64.64146       90.68475      108.19283
O         64.31649       90.85327      107.02593
H         64.47482       88.71506      110.66660
H         62.68468       90.35796      109.09636
H         63.58537       88.90047      108.57569
N         65.83747       91.16303      108.64611
C         66.82113       91.81486      107.79088
C         68.13411       90.99297      107.82270
O         68.76888       91.19421      109.05132
C         67.04923       93.29012      108.22711
C         65.80116       94.14434      108.02108
O         67.41193       93.36215      109.58599
H         66.08969       91.03137      109.62829
H         66.46626       91.82404      106.73675
H         67.84656       93.72969      107.57928
H         68.34844       93.68860      109.63430
H         66.01715       95.19189      108.32300
H         65.50567       94.14019      106.95093
H         64.95937       93.76444      108.63739
N         69.00695       91.37383      106.70069
C         70.36729       90.78647      106.74446
C         71.25533       91.73576      107.52374
O         71.27463       92.92100      107.22074
C         70.93771       90.52349      105.30200
C         70.21144       89.30199      104.65743
C         72.46237       90.25471      105.33945
C         70.61527       89.00622      103.21105
H         68.50147       91.11309      105.82708
H         70.36719       89.80171      107.25848
H         70.77787       91.43545      104.68489
H         69.11600       89.45717      104.64404
H         70.41342       88.39280      105.26477
H         72.87710       90.11609      104.32209
H         73.01036       91.12549      105.75370
H         72.69304       89.35877      105.95434
H         70.40451       89.88363      102.56520
H         71.68404       88.72691      103.12653
H         70.02540       88.14098      102.83968
N         72.07694       91.25236      108.49961
C         72.99392       92.08511      109.26528
C         74.42111       91.82838      108.83047
O         74.65991       90.97982      107.98383
C         72.83864       91.78970      110.76735
C         71.43814       92.02358      111.23551
O         70.79864       91.10556      111.72124
O         70.88566       93.24713      111.13185
H         72.10098       90.23830      108.67076
H         72.78913       93.16176      109.07515
H         73.50969       92.44258      111.36260
H         73.12154       90.72999      110.96185
N         75.42815       92.58268      109.34811
C         76.81271       92.45043      108.92636
C         77.40544       91.08660      109.27283
O         77.93791       90.46839      108.36029
C         77.67080       93.59662      109.50558
C         79.04433       93.64934      108.87510
C         79.17991       93.90698      107.49698
C         80.19958       93.46091      109.65140
C         80.44536       93.97032      106.90911
C         81.46529       93.52451      109.05750
C         81.58775       93.77902      107.68840
H         75.18837       93.32190      110.02629
H         76.82768       92.57994      107.82150
H         77.73930       93.49959      110.60606
H         77.17740       94.57010      109.29335
H         78.30771       94.06678      106.87562
H         80.12224       93.26421      110.71312
H         80.53906       94.17111      105.84927
H         82.35275       93.37846      109.65891
H         82.56725       93.83068      107.23089
N         77.38417       90.52911      110.53071
C         78.05159       89.27332      110.84521
C         77.39667       88.07653      110.18031
O         78.01933       87.02441      110.14391
C         77.99647       89.20417      112.37497
C         76.68106       89.89411      112.66745
C         76.72906       91.07893      111.70285
H         79.11556       89.31011      110.52105
H         78.12745       88.19223      112.81528
H         78.79127       89.86893      112.78399
H         75.86544       89.20607      112.34429
H         76.50327       90.17271      113.72776
H         75.68607       91.39820      111.52293
H         77.34125       91.90950      112.10900
N         76.14966       88.14941      109.63816
C         75.56069       87.04799      108.89215
C         76.23968       86.96861      107.54021
O         76.79450       85.93349      107.20013
C         74.05735       87.27175      108.67759
C         73.26480       87.34327      109.99578
C         71.82544       87.66632      109.72394
O         70.98609       87.93496      110.73422
O         71.41891       87.78651      108.57884
H         75.60418       89.01613      109.74714
H         75.67015       86.09519      109.45896
H         73.65134       86.44022      108.05958
H         73.90358       88.22384      108.12437
H         73.66887       88.16189      110.62659
H         73.34483       86.39446      110.56708
N         76.22738       88.05371      106.71394
C         76.83475       88.05623      105.40430
H         77.92182       87.85129      105.48860
H         76.35022       87.29202      104.76160
H         76.69629       89.05384      104.93235
H         75.76918       88.92154      107.02425
Ca        69.30531       89.20752      109.98909
O         66.49476       88.12131      108.88639
H         65.80256       87.46478      109.15006
H         66.55184       88.03127      107.90343
O         68.88719       86.85973      107.34292
H         69.67554       86.38605      106.97695
H         69.07379       87.81906      107.19352

Ca 1.0



