%chk=holoCaM.loop2.water2.frame131.chk
%nprocshared=20
%mem=10GB
%nosave
#b3lyp/svp scf=(tight,noincore,xqc) Test 
#IOP(5/87=12) Density=Current Pop=(MK,readradii) iop(6/33=2) iop(6/42=6)

holoCaM.loop2.water2.frame131 

   -2  1 
C          8.61105       86.87807       88.73679
C          9.63472       85.80060       88.51600
O         10.25412       85.36267       89.47439
H          7.82810       86.50696       89.43166
H          9.09361       87.77626       89.17264
H          8.11656       87.16951       87.78503
N          9.84445       85.30286       87.26758
C         10.75856       84.20372       86.98663
C         12.20696       84.59963       87.25270
O         12.65506       85.58481       86.68189
C         10.61011       83.78028       85.50875
C         11.30111       82.48347       85.21446
O         11.31979       82.05060       84.07397
O         11.84153       81.75861       86.21061
H          9.28536       85.68939       86.49060
H         10.45532       83.34115       87.62009
H         11.00864       84.58344       84.85081
H          9.53729       83.62982       85.26243
N         13.00628       83.85447       88.07491
C         14.40667       84.18158       88.34208
C         15.39418       83.10681       87.87061
O         16.58671       83.36488       87.96289
C         14.57796       84.42346       89.84664
H         12.60345       83.02634       88.53272
H         14.68505       85.11809       87.81249
H         15.62102       84.72322       90.08395
H         13.89754       85.23520       90.18229
H         14.33378       83.50047       90.41716
N         15.00211       81.88146       87.40096
C         15.95315       80.81479       87.04882
C         15.59527       80.03301       85.77509
O         16.35482       79.14130       85.42164
C         16.11805       79.86407       88.25437
C         14.85167       79.17754       88.67484
O         13.71469       79.34855       87.98150
O         14.84188       78.49271       89.68474
H         14.00358       81.65612       87.42568
H         16.95940       81.25562       86.87434
H         16.47331       80.47314       89.11484
H         16.89254       79.09694       88.03899
N         14.48937       80.30596       85.02311
C         14.17059       79.62421       83.77395
C         13.78490       78.15249       83.87383
O         13.60281       77.56113       82.81865
H         13.88815       81.08978       85.28496
H         15.04884       79.71719       83.09874
H         13.31923       80.14612       83.28571
N         13.64484       77.47690       85.05419
C         13.38037       76.03291       85.09732
C         12.03661       75.59888       84.49043
O         11.86764       74.40466       84.28693
C         13.52546       75.47279       86.53439
C         12.50197       75.98489       87.51804
N         12.49410       75.52581       88.78894
O         11.67251       76.80944       87.17573
H         13.80330       77.97826       85.93590
H         14.18120       75.55301       84.49135
H         14.53783       75.71939       86.92178
H         13.43629       74.36557       86.49364
H         13.18378       74.82857       89.10349
H         11.78641       75.86206       89.45659
N         11.03820       76.48342       84.19576
C          9.78383       76.11270       83.54645
C          8.54505       76.31226       84.40834
O          7.45566       76.14075       83.87922
H         11.17159       77.47372       84.41555
H          9.78734       75.04833       83.22520
H          9.68861       76.73242       82.62990
N          8.61783       76.58516       85.74373
C          7.45317       76.65140       86.63101
C          7.49698       77.89541       87.51623
O          8.44156       78.66624       87.42939
C          7.42061       75.37559       87.52116
C          7.26009       74.08940       86.69625
O          8.55169       75.30402       88.35691
H          9.54284       76.65317       86.17669
H          6.50836       76.67686       86.04384
H          6.52782       75.40868       88.17843
H          9.32695       75.01756       87.80786
H          8.12205       73.93884       86.01334
H          7.19270       73.21451       87.37705
H          6.32800       74.13768       86.09329
N          6.52755       78.10400       88.45592
C          6.58551       79.15407       89.46826
C          6.91037       78.47784       90.78840
O          6.27590       77.48929       91.13286
C          5.25749       79.95998       89.55733
C          4.89183       80.57237       88.18200
C          5.39416       81.06284       90.63249
C          3.57314       81.35257       88.18920
H          5.75300       77.42769       88.52968
H          7.39565       79.88155       89.23494
H          4.43994       79.26920       89.86203
H          4.78213       79.74952       87.44378
H          5.70306       81.24680       87.83359
H          6.18989       81.78667       90.35140
H          4.44452       81.61176       90.77964
H          5.64548       80.62688       91.61964
H          3.34259       81.70000       87.16075
H          2.74193       80.70670       88.54327
H          3.63776       82.25472       88.83115
N          7.89371       78.97556       91.58394
C          8.36142       78.32719       92.80380
C          7.83509       79.06448       94.01396
O          7.10728       80.03199       93.85871
C          9.90313       78.36156       92.82878
C         10.54246       77.79539       91.60232
O         10.20307       78.29650       90.40303
O         11.46164       76.99865       91.69790
H          8.33836       79.86566       91.31388
H          8.00556       77.27483       92.85496
H         10.30804       77.84408       93.72337
H         10.21850       79.42854       92.87616
N          8.16073       78.65487       95.26897
C          7.72317       79.36438       96.46090
C          8.26720       80.79951       96.50835
O          7.44812       81.69764       96.64590
C          8.08841       78.57340       97.73362
C          7.54944       79.25300       98.96933
C          6.16357       79.43506       99.13498
C          8.42576       79.72000       99.96227
C          5.66716       80.08107      100.26904
C          7.92375       80.36453      101.09686
C          6.54631       80.54664      101.24910
H          8.73440       77.80420       95.37939
H          6.61202       79.40893       96.43007
H          9.18534       78.44738       97.80212
H          7.64969       77.55344       97.67354
H          5.46522       79.08083       98.38730
H          9.49582       79.59191       99.85601
H          4.60025       80.22141      100.38592
H          8.60343       80.72562      101.85711
H          6.15954       81.04817      102.12621
N          9.59952       81.12601       96.39306
C         10.11460       82.49228       96.48732
C          9.77433       83.37820       95.29008
O         10.25053       84.50485       95.26554
C         11.62867       82.28610       96.63022
C         11.86000       81.05944       95.78329
C         10.68499       80.18157       96.19914
H          9.75467       83.00404       97.40688
H         12.25977       83.16913       96.39146
H         11.84298       81.98660       97.68214
H         11.72647       81.35696       94.71823
H         12.85431       80.57732       95.89498
H         10.51140       79.45460       95.38941
H         10.89544       79.66890       97.16006
N          8.93999       82.97436       94.29085
C          8.57176       83.80807       93.15460
C          7.11391       84.20179       93.29456
O          6.83015       85.38993       93.35516
C          8.84597       83.04627       91.84365
C         10.33404       82.66723       91.72814
C         10.66222       81.85837       90.50710
O          9.80662       81.55794       89.68984
O         11.92769       81.43767       90.32890
H          8.52030       82.04112       94.32745
H          9.17099       84.74641       93.13442
H          8.55229       83.67633       90.97545
H          8.23423       82.12086       91.82623
H         10.62697       82.05364       92.60489
H         10.95065       83.59165       91.71846
N          6.13987       83.25510       93.40199
C          4.74115       83.55736       93.62534
H          4.13266       83.12800       92.80384
H          4.42114       83.09633       94.58451
H          4.54572       84.64811       93.68295
H          6.39650       82.26395       93.35233
Ca        11.80806       78.87438       88.99855
O         10.25824       79.50331       85.53829
H          9.60212       79.70984       84.82658
H         11.13987       79.58157       85.09589
O          8.47207       81.54951       86.97205
H          8.06162       82.17393       87.62118
H          7.98243       81.70935       86.12691

Ca 1.0



