%chk=holoCaM.loop2.water2.frame151.chk
%nprocshared=20
%mem=10GB
%nosave
#b3lyp/svp scf=(tight,noincore,xqc) Test 
#IOP(5/87=12) Density=Current Pop=(MK,readradii) iop(6/33=2) iop(6/42=6)

holoCaM.loop2.water2.frame151 

   -2  1 
C         -6.48525       58.01044        0.70539
C         -5.29396       57.09839        0.76846
O         -4.39177       57.31028        1.56449
H         -7.38595       57.42914        1.00353
H         -6.37604       58.87651        1.38755
H         -6.63475       58.37339       -0.33445
N         -5.25770       56.03338       -0.06733
C         -4.25845       54.97175       -0.05352
C         -2.82594       55.48262       -0.23610
O         -2.56632       56.26350       -1.14072
C         -4.62014       53.99719       -1.18937
C         -3.90866       52.69467       -1.18006
O         -4.02913       51.95925       -2.14454
O         -3.07352       52.33316       -0.20298
H         -6.04030       55.95184       -0.73719
H         -4.34664       54.43171        0.91516
H         -4.41045       54.50550       -2.15533
H         -5.69743       53.73621       -1.14715
N         -1.83388       54.98598        0.55754
C         -0.41514       55.31989        0.45816
C          0.42678       54.16063       -0.07743
O          1.54586       54.41843       -0.49992
C          0.10593       55.66340        1.86737
H         -2.10113       54.28380        1.25254
H         -0.25604       56.18575       -0.22177
H         -0.34393       56.60431        2.24354
H         -0.15700       54.84607        2.57865
H          1.21307       55.76355        1.88313
N          0.02751       52.86072        0.05004
C          0.90904       51.71265       -0.16050
C          0.31688       50.56023       -0.98978
O          1.02268       49.57724       -1.17258
C          1.37402       51.18735        1.22473
C          0.30663       50.75390        2.21763
O          0.64905       50.23833        3.26682
O         -0.99884       51.00513        2.03307
H         -0.87787       52.68579        0.47504
H          1.83043       52.03845       -0.69557
H          1.95999       51.98994        1.72411
H          2.06700       50.33685        1.05146
N         -0.92709       50.59503       -1.54749
C         -1.49206       49.49861       -2.33211
C         -1.89615       48.26432       -1.53133
O         -2.21331       47.26352       -2.15928
H         -1.46102       51.45826       -1.48992
H         -0.74564       49.20611       -3.10337
H         -2.40000       49.84719       -2.86663
N         -1.89282       48.23431       -0.16623
C         -2.04977       46.99624        0.60151
C         -3.47921       46.42688        0.73068
O         -3.65983       45.52357        1.53738
C         -1.35152       47.13345        1.97553
C         -2.13397       47.83691        3.04880
N         -1.92516       47.50078        4.34216
O         -2.98845       48.65973        2.76438
H         -1.60815       49.08435        0.33839
H         -1.42967       46.22167        0.09930
H         -0.34597       47.59846        1.87038
H         -1.17199       46.10174        2.34670
H         -1.21653       46.79653        4.59689
H         -2.49307       47.91559        5.08985
N         -4.52564       46.83750       -0.04618
C         -5.85942       46.24578        0.03820
C         -6.68143       46.67703        1.24136
O         -7.79564       46.18711        1.36684
H         -4.36422       47.52130       -0.79381
H         -5.77115       45.13662        0.01374
H         -6.44654       46.55035       -0.85456
N         -6.23232       47.58864        2.15188
C         -7.02257       48.02575        3.30291
C         -6.77697       49.49319        3.64819
O         -5.81583       50.08989        3.18540
C         -6.67444       47.15601        4.55248
C         -7.25798       45.74856        4.44948
O         -5.28374       47.03605        4.74806
H         -5.29315       47.98244        2.03345
H         -8.10886       47.95548        3.06698
H         -7.12953       47.60601        5.46177
H         -4.84348       47.87790        4.47053
H         -8.36215       45.80237        4.34009
H         -6.82346       45.19179        3.59538
H         -7.02869       45.18592        5.38013
N         -7.61096       50.11179        4.53365
C         -7.31353       51.38836        5.17201
C         -6.41851       51.09831        6.35259
O         -6.75511       50.25167        7.16989
C         -8.62167       52.10457        5.63995
C         -9.46010       52.62992        4.44381
C         -8.34908       53.24845        6.64411
C         -8.86094       53.84350        3.71147
H         -8.39106       49.55879        4.92231
H         -6.77924       52.06942        4.48088
H         -9.23921       51.35669        6.18567
H        -10.45471       52.94644        4.82557
H         -9.62382       51.80585        3.71734
H         -7.88586       52.85672        7.57304
H         -7.66233       54.00782        6.21939
H         -9.29951       53.73839        6.94151
H         -9.53293       54.14413        2.88137
H         -8.77086       54.71874        4.38865
H         -7.86600       53.62482        3.28680
N         -5.29402       51.83755        6.54128
C         -4.42812       51.68760        7.69498
C         -4.69022       52.81457        8.68215
O         -5.46925       53.70590        8.39089
C         -2.95093       51.69640        7.24529
C         -2.63511       50.64949        6.22129
O         -3.14467       50.68750        5.11163
O         -1.74031       49.68960        6.51479
H         -5.08289       52.59366        5.88195
H         -4.64937       50.73270        8.21823
H         -2.30525       51.51352        8.12796
H         -2.68562       52.68713        6.81292
N         -4.06491       52.81793        9.88974
C         -4.17618       53.87725       10.89484
C         -3.75844       55.24877       10.35155
O         -4.54325       56.16999       10.52618
C         -3.35387       53.47882       12.13460
C         -3.24879       54.57614       13.16529
C         -4.38372       55.10789       13.80479
C         -1.97915       55.08342       13.48609
C         -4.23956       56.13624       14.74514
C         -1.84087       56.10647       14.42259
C         -2.96925       56.63497       15.05152
H         -3.45354       52.01392       10.09923
H         -5.23819       53.96061       11.22259
H         -2.33466       53.19568       11.80021
H         -3.81181       52.57529       12.59427
H         -5.37431       54.73397       13.57690
H         -1.09254       54.68839       13.00607
H         -5.11075       56.54977       15.23676
H         -0.85598       56.48825       14.65641
H         -2.85626       57.43080       15.77572
N         -2.59322       55.49586        9.67162
C         -2.27999       56.79127        9.07243
C         -3.35581       57.24249        8.09521
O         -3.66830       58.42503        8.06459
C         -0.90023       56.57940        8.42069
C         -0.81573       55.08242        8.20518
C         -1.55082       54.52273        9.41282
H         -2.17575       57.59485        9.83380
H         -0.68996       57.19088        7.51421
H         -0.13176       56.81666        9.18723
H         -1.40724       54.83635        7.30012
H          0.21262       54.67780        8.07166
H         -1.90347       53.52061        9.13665
H         -0.90268       54.46695       10.31301
N         -3.97820       56.35341        7.28347
C         -4.97137       56.73536        6.28117
C         -6.35406       56.96179        6.89698
O         -7.21359       57.52386        6.23267
C         -5.04190       55.62354        5.22001
C         -3.63795       55.32817        4.63515
C         -3.58573       54.07813        3.82421
O         -4.69601       53.37380        3.55942
O         -2.50301       53.64953        3.46636
H         -3.70210       55.36582        7.36456
H         -4.62621       57.66503        5.77493
H         -5.75576       55.87732        4.40608
H         -5.42019       54.72244        5.73744
H         -2.90460       55.14510        5.44023
H         -3.27064       56.19416        4.04650
N         -6.65263       56.50297        8.14495
C         -7.94661       56.64420        8.77489
H         -8.73055       56.14102        8.17072
H         -7.92232       56.16139        9.77834
H         -8.19194       57.71693        8.90841
H         -5.94260       55.99935        8.67390
Ca        -3.19778       51.38935        1.81468
O         -4.69609       49.75517        0.20837
H         -5.62066       49.44897        0.04257
H         -4.36444       50.02228       -0.68151
O         -6.14548       52.10197        1.16971
H         -6.32577       52.59306        2.00497
H         -6.96424       51.56574        1.03171

Ca 1.0



