%chk=holoCaM.loop2.water2.frame205.chk
%nprocshared=20
%mem=10GB
%nosave
#b3lyp/svp scf=(tight,noincore,xqc) Test 
#IOP(5/87=12) Density=Current Pop=(MK,readradii) iop(6/33=2) iop(6/42=6)

holoCaM.loop2.water2.frame205 

   -2  1 
C         17.87055       54.60927       88.50593
C         17.76441       53.40130       89.40119
O         18.49512       52.44357       89.20456
H         17.15556       55.40562       88.80911
H         18.89461       55.03565       88.57515
H         17.65914       54.33298       87.45369
N         16.89629       53.40927       90.44609
C         16.80573       52.35873       91.45589
C         16.17836       51.05804       90.96120
O         15.07354       51.09198       90.43774
C         15.95435       52.88447       92.62536
C         15.85104       51.86793       93.71245
O         14.64361       51.41690       94.10019
O         16.86439       51.41881       94.21685
H         16.33132       54.26245       90.58344
H         17.82553       52.16535       91.86063
H         14.93380       53.14673       92.27107
H         16.42656       53.79978       93.03933
N         16.78640       49.86025       91.22748
C         16.17036       48.55569       90.97931
C         16.07037       47.67336       92.24323
O         15.56237       46.56750       92.11662
C         17.00189       47.81814       89.92350
H         17.72281       49.87260       91.65400
H         15.14351       48.68502       90.57398
H         17.05906       48.42162       88.99304
H         18.03389       47.63920       90.29692
H         16.53954       46.83908       89.67228
N         16.58440       48.04576       93.45981
C         16.70781       47.12900       94.61072
C         16.21021       47.67460       95.95656
O         16.24584       46.92215       96.92123
C         18.18791       46.68777       94.73529
C         19.16970       47.82402       94.91222
O         18.73523       49.09240       95.04720
O         20.36701       47.60124       94.83808
H         17.02132       48.96681       93.52606
H         16.11968       46.20484       94.41645
H         18.44828       46.17267       93.78416
H         18.31354       45.95081       95.55830
N         15.73365       48.94069       96.11745
C         15.21478       49.45695       97.38282
C         16.23369       49.64900       98.50587
O         15.81067       50.03670       99.58590
H         15.67117       49.54904       95.29898
H         14.40992       48.77595       97.73612
H         14.75432       50.45160       97.19763
N         17.56825       49.40519       98.35437
C         18.54709       49.51832       99.44442
C         18.86896       50.95195       99.91157
O         19.74438       51.09387      100.75497
C         19.84262       48.75601       99.07386
C         20.62612       49.28685       97.90204
N         21.77866       48.67420       97.55308
O         20.23835       50.25415       97.26602
H         17.89501       49.04587       97.44996
H         18.15053       48.96354      100.32376
H         19.57536       47.69935       98.85286
H         20.51611       48.75129       99.95832
H         22.11804       47.85357       98.07542
H         22.33746       49.02018       96.76542
N         18.19749       52.05163       99.46353
C         18.45672       53.40831       99.93492
C         19.71215       54.06671       99.37974
O         19.93077       55.22240       99.71313
H         17.40008       51.92959       98.83508
H         18.46793       53.42254      101.04699
H         17.61307       54.05321       99.60551
N         20.56478       53.43481       98.52247
C         21.73531       54.07942       97.91889
C         21.67286       54.02341       96.40064
O         20.83790       53.31931       95.85243
C         23.03711       53.38047       98.40524
C         23.36849       53.76704       99.84502
O         22.92231       51.98060       98.32492
H         20.38035       52.45778       98.27234
H         21.77846       55.15829       98.18258
H         23.91574       53.71477       97.80758
H         22.92262       51.73642       97.36380
H         24.30350       53.25710      100.16322
H         23.54035       54.86402       99.90491
H         22.54885       53.48646      100.53737
N         22.60394       54.70607       95.66448
C         22.77952       54.53007       94.22860
C         24.01256       53.66332       94.06983
O         25.10406       54.08857       94.42367
C         22.93227       55.88566       93.45957
C         21.65080       56.75067       93.56543
C         23.28246       55.62430       91.97723
C         21.78369       58.12723       92.89475
H         23.30617       55.27225       96.16459
H         21.91073       53.98641       93.79828
H         23.77773       56.44981       93.91316
H         21.42043       56.92492       94.63727
H         20.79274       56.21455       93.10486
H         22.46449       55.07193       91.47029
H         23.48221       56.56384       91.42791
H         24.21733       55.04166       91.89029
H         21.93159       58.04402       91.79844
H         20.85160       58.71010       93.04596
H         22.63260       58.69332       93.33367
N         23.88875       52.40069       93.57809
C         25.01268       51.48777       93.40271
C         25.90213       51.96622       92.27163
O         25.58581       52.96798       91.65407
C         24.50115       50.06380       93.08790
C         23.68443       49.48984       94.21346
O         22.63523       50.01250       94.54928
O         24.10178       48.37747       94.84696
H         22.94710       52.07379       93.33859
H         25.59903       51.44236       94.34815
H         25.36756       49.38909       92.93201
H         23.89107       50.07177       92.15789
N         27.04689       51.31167       91.94171
C         27.89924       51.74387       90.84052
C         27.20278       51.58673       89.48124
O         27.11426       52.59172       88.79294
C         29.28805       51.07577       90.93311
C         30.23293       51.48673       89.82580
C         30.50102       52.84351       89.55827
C         30.87689       50.50088       89.05800
C         31.38615       53.20054       88.53694
C         31.77218       50.86325       88.04787
C         32.02419       52.21161       87.78514
H         27.33740       50.50337       92.51408
H         28.10568       52.82801       90.98609
H         29.20769       49.97541       90.97290
H         29.73789       51.38761       91.90087
H         30.02691       53.62946       90.13033
H         30.69811       49.45005       89.24928
H         31.58093       54.24530       88.33149
H         32.27265       50.09721       87.47024
H         32.71604       52.49005       87.00104
N         26.66355       50.40972       89.01473
C         25.95347       50.28629       87.73901
C         24.88496       51.34692       87.54738
O         24.83182       51.97857       86.50114
C         25.28644       48.90354       87.82987
C         26.28819       48.13241       88.64844
C         26.65568       49.14792       89.72673
H         26.69395       50.30918       86.90868
H         24.36326       48.95396       88.45196
H         25.01691       48.45696       86.84857
H         25.93615       47.15264       89.03573
H         27.18178       47.96395       88.00436
H         25.89009       49.19876       90.53055
H         27.63348       48.84626       90.13424
N         24.01394       51.59977       88.55918
C         22.93723       52.58499       88.51869
C         23.49351       53.96644       88.21811
O         23.02432       54.60028       87.28372
C         22.15514       52.53281       89.85737
C         21.44702       51.16467       89.97680
C         20.76313       50.89434       91.27971
O         20.80091       51.74763       92.31841
O         20.20590       49.81873       91.42444
H         24.15438       51.06611       89.43073
H         22.21795       52.32805       87.70801
H         21.38310       53.33257       89.88967
H         22.85986       52.68635       90.70470
H         22.17153       50.33556       89.85584
H         20.70192       51.07889       89.15857
N         24.54035       54.46335       88.92811
C         25.17963       55.73402       88.65628
H         26.23889       55.55311       88.37300
H         24.68653       56.28951       87.83240
H         25.16185       56.36044       89.57112
H         24.93935       53.89156       89.67278
Ca        19.85176       50.82214       94.14228
O         18.99636       53.89305       93.88037
H         18.53711       54.76150       93.99751
H         19.48952       53.98418       93.02747
O         17.60738       52.61899       96.49787
H         16.83238       53.17047       96.77205
H         17.29177       51.68574       96.60609

Ca 1.0



