%chk=holoCaM-CaMKII.loop2.water1.frame374.chk
%nprocshared=20
%mem=10GB
%nosave
#b3lyp/svp scf=(tight,noincore,xqc) Test 
#IOP(5/87=12) Density=Current Pop=(MK,readradii) iop(6/33=2) iop(6/42=6)

holoCaM-CaMKII.loop2.water1.frame374 

   -2  1 
C         57.04428       74.62717       61.39481
C         58.21836       75.42571       61.87399
O         59.10340       75.70223       61.08431
H         56.12389       75.23991       61.49387
H         57.16952       74.35166       60.32453
H         56.93889       73.69993       61.99400
N         58.29495       75.83497       63.16900
C         59.36816       76.68091       63.67655
C         60.21044       75.91747       64.67980
O         59.67089       75.37496       65.63408
C         58.76121       77.94398       64.30636
C         59.82585       78.89471       64.77792
O         60.62797       79.36541       63.98649
O         59.89650       79.23107       66.07884
H         57.54929       75.54687       63.82166
H         60.02482       77.01724       62.84449
H         58.10945       77.65911       65.16073
H         58.13398       78.46550       63.55279
N         61.56451       75.87216       64.52592
C         62.47075       75.16184       65.41414
C         63.39307       76.10517       66.18267
O         64.16956       75.60403       66.98437
C         63.30509       74.18856       64.56880
H         61.98405       76.37669       63.73712
H         61.89715       74.57979       66.16683
H         62.64023       73.48429       64.02482
H         63.90642       74.74941       63.81787
H         63.99827       73.59919       65.20486
N         63.39364       77.46098       65.98937
C         64.31237       78.36661       66.68008
C         63.59721       79.55580       67.33614
O         63.78979       79.73606       68.53060
C         65.50461       78.76305       65.77177
C         65.20190       79.37891       64.43911
O         63.94384       79.51885       64.00869
O         66.12158       79.71023       63.70816
H         62.76357       77.86470       65.28619
H         64.82154       77.82697       67.51055
H         66.08709       77.83969       65.55485
H         66.16476       79.45099       66.34322
N         62.77037       80.40587       66.65086
C         62.12026       81.56945       67.25228
C         62.45293       82.88372       66.55321
O         61.94758       83.90900       66.98730
H         62.55127       80.22006       65.66884
H         62.39994       81.67662       68.32166
H         61.02115       81.42313       67.20332
N         63.29795       82.94432       65.48380
C         63.70576       84.18889       64.81797
C         62.58421       84.93177       64.07176
O         62.86873       85.98517       63.51755
C         64.86252       83.87563       63.83953
C         64.39052       83.19602       62.54861
N         65.51093       82.56414       61.85751
O         63.36253       82.27900       62.80086
H         63.74167       82.06936       65.17571
H         64.12337       84.85602       65.60339
H         65.60689       83.24017       64.37005
H         65.38084       84.80972       63.53498
H         66.30199       83.24002       61.77266
H         65.20433       82.35051       60.88407
N         61.30354       84.46042       64.00078
C         60.22619       85.17325       63.32593
C         60.17097       84.97887       61.81765
O         59.24541       85.51249       61.22215
H         61.04581       83.59935       64.49915
H         60.25843       86.25305       63.59337
H         59.26195       84.77611       63.70978
N         61.07899       84.22450       61.12904
C         60.98945       83.96657       59.68977
C         60.97305       82.47513       59.38564
O         61.50021       81.68619       60.15669
C         62.18841       84.59851       58.94169
C         62.15515       86.12442       59.00152
O         63.40569       84.14996       59.48319
H         61.86695       83.81130       61.63617
H         60.05557       84.40260       59.26972
H         62.13638       84.33382       57.85832
H         63.56906       83.23919       59.12436
H         62.21105       86.48287       60.05030
H         63.01891       86.53650       58.43665
H         61.22120       86.50325       58.53364
N         60.43783       82.03517       58.21123
C         60.56388       80.66312       57.72586
C         61.97523       80.47863       57.18145
O         62.40055       81.29307       56.37189
C         59.51463       80.36810       56.60153
C         58.07023       80.52481       57.14971
C         59.71735       78.94529       56.03399
C         56.98519       80.35458       56.08028
H         59.97642       82.72649       57.59917
H         60.34792       79.94041       58.54466
H         59.66329       81.09573       55.77263
H         57.94461       81.54349       57.57141
H         57.89129       79.79079       57.96634
H         59.59893       78.17896       56.83084
H         59.01700       78.72056       55.20759
H         60.72139       78.85226       55.58735
H         57.13842       81.08503       55.25775
H         56.97199       79.32822       55.66211
H         55.98775       80.53312       56.53304
N         62.71679       79.37930       57.50099
C         64.01815       79.08601       56.89411
C         63.85756       78.03467       55.83342
O         62.75439       77.54860       55.64640
C         65.00392       78.54786       57.94206
C         65.02855       79.42866       59.12160
O         64.57874       78.93319       60.27759
O         65.33869       80.60506       59.02630
H         62.29347       78.66844       58.11068
H         64.43521       80.00172       56.41953
H         66.02740       78.44006       57.52666
H         64.64901       77.55000       58.28760
N         64.90686       77.62448       55.07892
C         64.75425       76.59021       54.07283
C         64.39837       75.23701       54.70428
O         63.40997       74.66885       54.27043
C         65.98484       76.50846       53.14981
C         65.75118       75.51363       52.04033
C         64.70939       75.70894       51.11337
C         66.56259       74.37381       51.93060
C         64.48121       74.77412       50.10225
C         66.33114       73.44168       50.91565
C         65.29068       73.64047       50.00366
H         65.82558       78.08045       55.20528
H         63.91398       76.89985       53.41107
H         66.89175       76.24291       53.71794
H         66.17221       77.50664       52.69701
H         64.07024       76.58111       51.17168
H         67.36749       74.20249       52.63463
H         63.67487       74.92929       49.39701
H         66.95712       72.56304       50.83901
H         65.11111       72.91642       49.22056
N         65.11816       74.65359       55.72462
C         64.76816       73.37133       56.34018
C         63.31617       73.30284       56.76560
O         62.62805       72.33968       56.45464
C         65.66221       73.31354       57.59203
C         66.88434       74.06856       57.13957
C         66.26247       75.24111       56.39217
H         65.02527       72.55040       55.63522
H         65.22405       73.92315       58.41582
H         65.84163       72.28973       57.98400
H         67.58770       74.36042       57.94871
H         67.42134       73.42983       56.40287
H         65.89842       76.01774       57.09318
H         67.03292       75.65922       55.72654
N         62.79143       74.33870       57.46860
C         61.42010       74.42302       57.95032
C         60.43980       74.30573       56.79636
O         59.54784       73.47148       56.85251
C         61.22789       75.76387       58.69041
C         62.11553       75.84869       59.95839
C         62.01482       77.15937       60.68387
O         62.80047       77.37843       61.75272
O         61.25766       78.03800       60.30964
H         63.41751       75.13936       57.64199
H         61.21637       73.60162       58.67421
H         60.16425       75.87681       58.96971
H         61.47620       76.59270       57.99794
H         63.18420       75.72609       59.69475
H         61.84252       75.03221       60.66134
N         60.57038       75.09486       55.69888
C         59.68540       75.01905       54.56007
H         58.65524       75.29824       54.86254
H         60.03058       75.72448       53.77284
H         59.69376       73.99147       54.13941
H         61.34726       75.75523       55.65652
Ca        63.73356       80.44582       61.59707
O         59.27717       79.93131       61.32149
H         58.48014       80.19826       61.84330
H         58.96053       79.18602       60.75208

Ca 1.0



