%chk=holoCaM-CaMKII.loop2.water2.frame175.chk
%nprocshared=20
%mem=10GB
%nosave
#b3lyp/svp scf=(tight,noincore,xqc) Test 
#IOP(5/87=12) Density=Current Pop=(MK,readradii) iop(6/33=2) iop(6/42=6)

holoCaM-CaMKII.loop2.water2.frame175 

   -2  1 
C          9.87545       51.78303       -4.36204
C         10.42765       53.00656       -5.03174
O          9.66824       53.80313       -5.56385
H          8.76920       51.74696       -4.44357
H         10.30141       50.87573       -4.84133
H         10.15842       51.78783       -3.28796
N         11.77107       53.21166       -5.03800
C         12.41548       54.36340       -5.65911
C         12.13227       54.36985       -7.15826
O         12.41376       53.37499       -7.81204
C         13.93356       54.28631       -5.37792
C         14.71817       55.50026       -5.77473
O         14.17516       56.48956       -6.23392
O         16.04817       55.50253       -5.58244
H         12.36120       52.50828       -4.56470
H         12.02660       55.28806       -5.17748
H         14.35693       53.39652       -5.89191
H         14.09053       54.16505       -4.28385
N         11.57359       55.45902       -7.76488
C         11.21057       55.50348       -9.18224
C         12.07586       56.46734       -9.99359
O         11.92458       56.49869      -11.20684
C          9.73020       55.88132       -9.30220
H         11.39464       56.29405       -7.19408
H         11.35214       54.50046       -9.63896
H          9.40632       55.87911      -10.36439
H          9.10453       55.15444       -8.74147
H          9.55579       56.89523       -8.87925
N         13.01188       57.26232       -9.40370
C         13.95082       58.12710      -10.12137
C         15.39808       57.76752       -9.76377
O         16.30067       58.42525      -10.26331
C         13.66094       59.62735       -9.83770
C         13.72371       59.96088       -8.37748
O         14.56637       60.72432       -7.94193
O         12.83557       59.37102       -7.56387
H         13.08851       57.23650       -8.38339
H         13.84053       57.99602      -11.22021
H         12.64588       59.88656      -10.20929
H         14.39259       60.24806      -10.40076
N         15.70248       56.72231       -8.93329
C         17.05745       56.31675       -8.60141
C         17.84365       57.28380       -7.72996
O         19.00289       56.97878       -7.48686
H         14.95641       56.11719       -8.57102
H         17.61282       56.14177       -9.54844
H         17.01859       55.34765       -8.05866
N         17.33904       58.45990       -7.24211
C         18.20418       59.42122       -6.54919
C         18.72425       58.93885       -5.19671
O         19.70896       59.49443       -4.72940
C         17.55799       60.81632       -6.44150
C         16.46002       60.91568       -5.40983
N         16.52875       61.85022       -4.43323
O         15.49776       60.16642       -5.46028
H         16.36813       58.72176       -7.45842
H         19.08197       59.55750       -7.22092
H         17.15980       61.09802       -7.43975
H         18.35110       61.55321       -6.18960
H         17.32559       62.50066       -4.37398
H         15.77185       61.94282       -3.74381
N         18.11215       57.93610       -4.50178
C         18.63278       57.37656       -3.26098
C         17.72702       57.57533       -2.05914
O         18.03315       57.00345       -1.02416
H         17.24604       57.52709       -4.87506
H         19.62791       57.79762       -3.00033
H         18.76908       56.28558       -3.42369
N         16.63467       58.39551       -2.09098
C         15.76385       58.62456       -0.93168
C         14.32092       58.28212       -1.29076
O         14.08176       57.84536       -2.40693
C         15.91694       60.08402       -0.44523
C         17.35165       60.38706       -0.00369
O         15.55960       60.97982       -1.46055
H         16.42182       58.91413       -2.95456
H         16.05050       57.96862       -0.08070
H         15.28252       60.24423        0.45863
H         14.64543       61.29846       -1.25332
H         17.65172       59.70744        0.82239
H         18.06311       60.26594       -0.84797
H         17.41890       61.43411        0.36077
N         13.30503       58.43608       -0.38078
C         11.92702       58.03882       -0.66839
C         11.00593       59.26176       -0.64661
O         10.81039       59.85341        0.40452
C         11.44903       56.95171        0.35013
C         12.45679       55.77424        0.43979
C         10.05085       56.43905       -0.03660
C         12.06454       54.70528        1.46669
H         13.51350       58.81635        0.55289
H         11.87565       57.58310       -1.68003
H         11.38833       57.41917        1.35851
H         13.44434       56.17146        0.75800
H         12.57845       55.29360       -0.55490
H         10.08702       55.92277       -1.01833
H          9.64360       55.74129        0.72073
H          9.33665       57.27620       -0.09194
H         11.13457       54.17836        1.17153
H         12.86675       53.94101        1.53217
H         11.92685       55.16203        2.47009
N         10.39400       59.67849       -1.79623
C          9.41129       60.75936       -1.87862
C          8.11465       60.36220       -1.19140
O          8.00339       59.25231       -0.69669
C          9.07355       61.06805       -3.36137
C         10.23731       61.60138       -4.13481
O         10.79496       62.77444       -3.77994
O         10.64693       61.00866       -5.11926
H         10.63890       59.19895       -2.66200
H          9.82494       61.67649       -1.40423
H          8.30145       61.85685       -3.42934
H          8.67707       60.14820       -3.84602
N          7.06969       61.23109       -1.13899
C          5.78473       60.89426       -0.54178
C          5.07323       59.77095       -1.31038
O          4.76010       58.77621       -0.67288
C          4.92936       62.16829       -0.37187
C          3.81261       61.97829        0.63121
C          2.67081       61.21530        0.33268
C          3.92320       62.57327        1.90342
C          1.66178       61.05525        1.29127
C          2.91981       62.40254        2.85815
C          1.78825       61.64560        2.55267
H          7.20562       62.18336       -1.51289
H          5.99361       60.54866        0.49811
H          4.55381       62.57794       -1.33075
H          5.61580       62.93699        0.04751
H          2.55535       60.75251       -0.63850
H          4.79535       63.16008        2.16549
H          0.78051       60.47222        1.05870
H          3.02313       62.85708        3.83548
H          1.01098       61.51765        3.29495
N          4.79644       59.81025       -2.66046
C          4.10771       58.73200       -3.36978
C          4.91452       57.44535       -3.42472
O          4.32975       56.40136       -3.68045
C          3.87056       59.31026       -4.77262
C          5.06428       60.22643       -4.94250
C          5.14207       60.88569       -3.56765
H          3.12881       58.50719       -2.89296
H          3.71613       58.56314       -5.58198
H          2.97771       59.97349       -4.73442
H          5.96712       59.58813       -5.08133
H          5.01151       60.93949       -5.79252
H          6.16406       61.27021       -3.44350
H          4.39493       61.70056       -3.46266
N          6.25929       57.44077       -3.23439
C          7.06287       56.22442       -3.23064
C          6.76297       55.44609       -1.96613
O          6.40886       54.27877       -2.05517
C          8.55448       56.59394       -3.41797
C          8.70989       57.17572       -4.83951
C         10.04846       57.72036       -5.21020
O         10.17077       58.21591       -6.31901
O         11.09539       57.76052       -4.36678
H          6.74016       58.34175       -3.09367
H          6.80253       55.58247       -4.10416
H          9.19711       55.69037       -3.33281
H          8.86491       57.33111       -2.64733
H          8.00287       58.01868       -4.97801
H          8.45022       56.38544       -5.57748
N          6.80671       56.05670       -0.75205
C          6.43440       55.38459        0.47259
H          5.38470       55.02592        0.40083
H          7.11212       54.52705        0.66109
H          6.50160       56.09368        1.32580
H          7.06666       57.04723       -0.69739
Ca        12.79270       58.81641       -5.39166
O         12.96285       60.88784       -3.07811
H         13.49009       61.17786       -3.86240
H         12.78772       61.72435       -2.57803
O         13.05363       62.57349       -6.15783
H         12.53198       63.35196       -5.83970
H         13.94878       62.94233       -6.36384

Ca 1.0



