%chk=holoCaM.loop2.water0.frame332.chk
%nprocshared=20
%mem=10GB
%nosave
#b3lyp/svp scf=(tight,noincore,xqc) Test 
#IOP(5/87=12) Density=Current Pop=(MK,readradii) iop(6/33=2) iop(6/42=6)

holoCaM.loop2.water0.frame332 

   -2  1 
C         19.21565       34.09480       -8.98710
C         18.36760       33.95976      -10.21661
O         17.50686       33.09112      -10.24446
H         19.95295       34.91847       -9.08963
H         18.56215       34.31676       -8.11631
H         19.75975       33.14634       -8.80108
N         18.52339       34.81411      -11.26647
C         17.65576       34.76524      -12.43331
C         17.90491       33.50846      -13.24731
O         19.05015       33.24089      -13.58508
C         17.81661       36.02684      -13.31073
C         16.61512       36.14746      -14.21331
O         16.37889       35.30303      -15.05534
O         15.70180       37.10072      -13.96226
H         19.23057       35.56286      -11.19890
H         16.61006       34.79557      -12.05951
H         18.77694       36.03795      -13.87306
H         17.80161       36.91472      -12.64167
N         16.86067       32.73466      -13.66256
C         17.01593       31.55521      -14.50277
C         16.52770       31.86062      -15.91541
O         15.68299       31.14926      -16.43836
C         16.27151       30.38204      -13.85154
H         15.90598       33.02817      -13.42361
H         18.08873       31.28085      -14.59553
H         16.38265       29.45907      -14.45783
H         16.67640       30.19289      -12.83481
H         15.18850       30.62123      -13.75707
N         17.05889       32.93143      -16.58162
C         16.74612       33.34074      -17.96147
C         17.45745       34.64027      -18.43067
O         17.35787       34.92176      -19.61734
C         15.21873       33.43083      -18.23982
C         14.46643       34.33162      -17.30615
O         14.70523       35.52340      -17.26889
O         13.49051       33.82731      -16.52725
H         17.76343       33.44620      -16.05326
H         17.12747       32.53325      -18.62535
H         14.76804       32.42206      -18.17402
H         15.04616       33.75895      -19.28787
N         18.20590       35.46115      -17.62181
C         18.97371       36.60237      -18.10866
C         18.17990       37.80680      -18.58967
O         18.82114       38.75712      -19.01620
H         18.33575       35.26556      -16.62708
H         19.64648       36.25468      -18.92252
H         19.62018       36.96989      -17.28071
N         16.81681       37.87033      -18.56912
C         16.07701       39.01666      -19.10419
C         16.19797       40.31015      -18.28059
O         15.59656       41.29470      -18.68981
C         14.59004       38.66112      -19.36178
C         13.73999       38.38687      -18.14952
N         12.41200       38.17924      -18.30120
O         14.23149       38.35712      -17.03479
H         16.29057       37.05426      -18.24204
H         16.48298       39.22743      -20.11902
H         14.53760       37.77562      -20.03245
H         14.12826       39.51564      -19.90260
H         11.97969       38.20656      -19.23636
H         11.80941       38.00852      -17.48469
N         16.96257       40.41988      -17.15070
C         17.11000       41.67982      -16.42549
C         15.92609       42.03937      -15.53904
O         15.95863       43.10276      -14.93897
H         17.52181       39.62022      -16.82579
H         17.31963       42.49715      -17.15098
H         17.98975       41.60799      -15.75078
N         14.87659       41.18832      -15.36763
C         13.73442       41.42928      -14.48339
C         13.71895       40.34026      -13.41280
O         14.52527       39.43051      -13.51142
C         12.46189       41.41945      -15.37745
C         11.13829       41.62435      -14.63998
O         12.57639       42.43599      -16.34139
H         14.88729       40.29594      -15.86806
H         13.83130       42.41297      -13.97522
H         12.37912       40.42764      -15.88585
H         13.06144       42.05176      -17.11850
H         10.30849       41.65613      -15.37767
H         10.91741       40.77542      -13.96380
H         11.14985       42.57971      -14.07432
N         12.85097       40.35861      -12.35289
C         12.76167       39.24183      -11.41321
C         11.36333       38.64915      -11.51498
O         10.40436       39.27253      -11.08335
C         13.13814       39.66058       -9.96198
C         14.53196       40.34324       -9.94340
C         13.11787       38.42238       -9.04394
C         14.97605       40.81852       -8.55714
H         12.22031       41.16095      -12.21935
H         13.48492       38.45176      -11.70508
H         12.38799       40.39365       -9.59035
H         14.49558       41.24303      -10.59449
H         15.30317       39.65232      -10.34861
H         12.11901       37.94477       -9.05927
H         13.87602       37.67909       -9.37325
H         13.32078       38.69561       -7.99046
H         14.22269       41.50915       -8.12284
H         15.13775       39.96487       -7.86818
H         15.94302       41.35720       -8.64561
N         11.18348       37.45449      -12.14857
C          9.88672       36.81121      -12.33685
C          9.35180       36.22946      -11.02822
O         10.02662       36.34253      -10.01564
C         10.01121       35.72431      -13.42832
C         10.18131       36.33105      -14.80667
O         11.36118       36.76934      -15.30716
O          9.19986       36.39668      -15.52986
H         12.00835       37.00698      -12.56564
H          9.14661       37.55988      -12.70060
H          9.05132       35.16835      -13.45679
H         10.80353       34.97545      -13.21024
N          8.12296       35.62668      -10.95647
C          7.56784       35.10321       -9.70689
C          8.39856       33.93496       -9.16548
O          8.78162       34.02015       -8.00967
C          6.06387       34.73265       -9.82373
C          5.43143       34.47456       -8.47051
C          5.28440       35.52856       -7.54916
C          4.96440       33.19417       -8.12038
C          4.68191       35.30728       -6.30716
C          4.36939       32.97596       -6.87158
C          4.22618       34.03193       -5.96752
H          7.54010       35.58443      -11.80782
H          7.59847       35.93698       -8.96946
H          5.90526       33.85830      -10.47110
H          5.50536       35.57085      -10.29330
H          5.62315       36.52633       -7.79719
H          5.06437       32.36381       -8.80787
H          4.56528       36.12655       -5.60904
H          4.01552       31.98847       -6.60404
H          3.76009       33.86341       -5.00474
N          8.75282       32.82879       -9.91448
C          9.55631       31.71158       -9.39918
C         10.96245       32.06441       -8.92614
O         11.67999       31.16097       -8.51375
C          9.68811       30.76868      -10.60571
C          8.41551       31.04263      -11.36446
C          8.34970       32.56283      -11.28093
H          8.97623       31.23150       -8.58061
H         10.51522       31.12114      -11.26775
H          9.88121       29.70587      -10.34432
H          8.38908       30.63508      -12.39708
H          7.56715       30.61317      -10.78229
H          9.08489       33.03593      -11.96848
H          7.33239       32.86973      -11.55508
N         11.43779       33.33690       -8.98108
C         12.78803       33.73765       -8.63574
C         12.74302       34.56159       -7.36342
O         13.41704       34.20810       -6.40765
C         13.37454       34.54653       -9.80736
C         13.34279       33.75663      -11.12924
C         13.79552       34.59643      -12.28287
O         14.22882       35.85474      -12.08362
O         13.74648       34.14679      -13.41602
H         10.83495       34.08591       -9.32972
H         13.44008       32.85229       -8.45959
H         14.41757       34.85349       -9.57256
H         12.76239       35.46518       -9.94850
H         12.30045       33.44343      -11.35234
H         13.98136       32.85013      -11.05313
N         11.92755       35.65120       -7.26903
C         11.77766       36.45183       -6.07291
H         10.72000       36.40236       -5.73647
H         12.42871       36.10410       -5.24564
H         12.02397       37.50834       -6.30220
H         11.35195       35.91956       -8.07264
Ca        13.53977       36.90164      -14.66157

Ca 1.0



