%chk=holoCaM.loop2.water1.frame14.chk
%nprocshared=20
%mem=10GB
%nosave
#b3lyp/svp scf=(tight,noincore,xqc) Test 
#IOP(5/87=12) Density=Current Pop=(MK,readradii) iop(6/33=2) iop(6/42=6)

holoCaM.loop2.water1.frame14 

   -2  1 
C         87.10861        4.98692       19.28625
C         87.89992        4.57296       18.08212
O         87.36973        3.89999       17.20952
H         86.06806        4.60467       19.23034
H         87.59191        4.57731       20.19911
H         87.08586        6.09472       19.35650
N         89.20299        4.94659       17.98049
C         90.06631        4.56583       16.87034
C         90.19703        3.05097       16.80560
O         90.59824        2.44479       17.78920
C         91.43260        5.25416       17.03698
C         92.39054        4.90652       15.94445
O         92.12294        5.14795       14.77884
O         93.56444        4.33668       16.26174
H         89.59516        5.52920       18.73772
H         89.62496        4.94246       15.92811
H         91.88138        4.96615       18.01210
H         91.28438        6.35672       17.03147
N         89.85993        2.38084       15.66464
C         89.86362        0.92814       15.53874
C         90.89515        0.42096       14.53882
O         90.96048       -0.78753       14.35844
C         88.45985        0.47045       15.12481
H         89.56241        2.92524       14.84429
H         90.10339        0.45269       16.51467
H         88.41137       -0.63792       15.06123
H         87.71246        0.80758       15.87401
H         88.18873        0.89582       14.13376
N         91.75982        1.25333       13.88479
C         92.79011        0.76776       12.96312
C         94.18561        1.04815       13.51054
O         95.15531        0.71564       12.84238
C         92.65612        1.48634       11.60629
C         91.23989        1.51087       11.09282
O         90.56116        2.67842       11.08419
O         90.68304        0.47894       10.75622
H         91.71582        2.26913       14.05564
H         92.68768       -0.32650       12.80152
H         93.33745        1.04974       10.84541
H         93.00256        2.52104       11.76129
N         94.36772        1.70124       14.69553
C         95.66193        2.12177       15.19019
C         96.31122        3.09769       14.23782
O         97.46294        2.88633       13.88555
H         93.56073        1.95975       15.27775
H         96.31624        1.24148       15.37370
H         95.51808        2.63988       16.16261
N         95.62362        4.18564       13.76946
C         96.21163        5.18481       12.88114
C         96.20139        6.57993       13.51039
O         96.67300        7.51639       12.88211
C         95.55536        5.08489       11.48220
C         94.26056        5.87395       11.16827
N         94.50515        7.19631       10.59401
O         93.35062        5.98698       12.22330
H         94.63534        4.29932       14.03153
H         97.27919        4.92221       12.71265
H         95.37655        4.00578       11.27745
H         96.30682        5.38452       10.71998
H         95.26511        7.15895        9.87648
H         94.76054        7.87946       11.33712
N         95.74953        6.77252       14.78790
C         95.83429        8.02859       15.51361
C         94.77480        9.06116       15.18345
O         94.77977       10.08075       15.85986
H         95.43831        5.96595       15.34370
H         96.85562        8.45542       15.41149
H         95.68596        7.79713       16.59163
N         93.83706        8.90178       14.20218
C         92.79331        9.89899       13.93673
C         91.40375        9.26582       13.99966
O         91.30059        8.06806       14.23331
C         93.04864       10.59897       12.58070
C         94.43728       11.24987       12.53932
O         92.92603        9.68222       11.52912
H         93.86597        8.06186       13.60973
H         92.81488       10.69728       14.71133
H         92.29011       11.40643       12.46317
H         92.77516       10.21326       10.70335
H         94.55048       11.97526       13.37309
H         95.23535       10.48103       12.61754
H         94.57109       11.79262       11.58021
N         90.28277       10.02612       13.81025
C         88.91873        9.50536       13.88337
C         88.23232        9.65287       12.52952
O         87.99028       10.77057       12.09381
C         88.13878       10.24468       15.02154
C         88.73708        9.85749       16.39996
C         86.62524        9.94890       14.98110
C         88.14230       10.63427       17.57818
H         90.39276       11.03307       13.61751
H         88.92871        8.42454       14.13061
H         88.25750       11.34076       14.86565
H         89.82854       10.06163       16.39733
H         88.58982        8.76850       16.57682
H         86.07645       10.52235       15.75302
H         86.19132       10.28937       14.02240
H         86.42640        8.86763       15.11782
H         87.06025       10.43123       17.70555
H         88.64525       10.31971       18.51652
H         88.30033       11.72428       17.43741
N         87.86536        8.54156       11.82191
C         87.06919        8.58312       10.59392
C         85.62226        8.93719       10.91800
O         85.29041        9.05927       12.08467
C         87.07335        7.19679        9.90862
C         88.44642        6.75730        9.50023
O         89.08033        7.40798        8.68506
O         88.97070        5.62364       10.00427
H         88.15025        7.62046       12.18117
H         87.50682        9.32903        9.89437
H         86.46198        7.22605        8.98429
H         86.63646        6.44259       10.60160
N         84.68877        9.09269        9.93569
C         83.27712        9.33237       10.22819
C         82.63959        8.12263       10.92983
O         82.08711        8.33862       11.99830
C         82.49735        9.74387        8.95887
C         81.03125        9.96728        9.25054
C         80.61241       11.02693       10.07498
C         80.06763        9.10293        8.70240
C         79.25200       11.21793       10.33979
C         78.71084        9.29253        8.97692
C         78.30260       10.35039        9.79269
H         84.99262        9.04228        8.95140
H         83.20663       10.21246       10.90847
H         82.60134        8.98510        8.17205
H         82.93129       10.67488        8.53435
H         81.33530       11.70770       10.50658
H         80.36687        8.27432        8.07249
H         78.93291       12.03804       10.97003
H         77.97632        8.61757        8.55718
H         77.25067       10.49679       10.00102
N         82.65983        6.83583       10.43380
C         82.08101        5.68122       11.12304
C         82.46898        5.60329       12.58430
O         81.60691        5.42160       13.43254
C         82.67611        4.47696       10.37501
C         82.77043        5.00783        8.97122
C         83.31624        6.40974        9.21122
H         80.97445        5.70591       11.00444
H         83.72624        4.29418       10.70157
H         82.10683        3.53059       10.49391
H         83.37257        4.39593        8.26607
H         81.73198        5.09493        8.57645
H         84.40750        6.39583        9.38796
H         83.07236        6.99509        8.31489
N         83.77132        5.77018       12.93702
C         84.26871        5.72961       14.30662
C         83.55609        6.77155       15.15149
O         82.97656        6.41515       16.16792
C         85.80069        5.94369       14.31001
C         86.52164        4.79211       13.57174
C         88.00665        4.97045       13.46810
O         88.56811        5.93621       13.95574
O         88.72790        4.05454       12.79821
H         84.43782        5.97136       12.17675
H         84.07092        4.72677       14.74801
H         86.17219        5.98134       15.35776
H         86.03809        6.91071       13.81479
H         86.15100        4.70260       12.53193
H         86.31554        3.83422       14.09570
N         83.51085        8.07261       14.76122
C         82.78474        9.08377       15.49665
H         81.71343        8.79812       15.57566
H         83.21754        9.20254       16.51111
H         82.84733       10.05592       14.96148
H         83.97555        8.35000       13.89217
Ca        91.70819        4.46769       11.86067
O         91.24503        7.51054       10.75117
H         91.52811        7.12733        9.88280
H         90.82577        8.37645       10.51681

Ca 1.0



