%chk=holoCaM-CaMKII.loop2.water0.frame230.chk
%nprocshared=20
%mem=10GB
%nosave
#b3lyp/svp scf=(tight,noincore,xqc) Test 
#IOP(5/87=12) Density=Current Pop=(MK,readradii) iop(6/33=2) iop(6/42=6)

holoCaM-CaMKII.loop2.water0.frame230 

   -2  1 
C         54.18080       38.79329       62.49190
C         53.10239       37.78793       62.78174
O         52.29068       37.51697       61.90864
H         55.17348       38.30027       62.57643
H         54.08115       39.19824       61.46155
H         54.13022       39.63223       63.21578
N         53.05860       37.17071       63.99672
C         52.12904       36.09549       64.33237
C         51.28683       36.46111       65.55054
O         51.82801       36.98453       66.51496
C         52.95267       34.82612       64.61901
C         52.12659       33.57310       64.73415
O         52.73086       32.40231       65.00572
O         50.92545       33.59019       64.53341
H         53.76485       37.43527       64.70176
H         51.46491       35.87460       63.46644
H         53.53749       34.97380       65.55216
H         53.66086       34.65906       63.77984
N         49.94481       36.21087       65.56450
C         49.05376       36.58481       66.65995
C         48.14110       35.43866       67.11826
O         47.19658       35.71412       67.84633
C         48.20768       37.75173       66.15120
H         49.51451       35.78769       64.72777
H         49.61420       36.96151       67.54409
H         47.61299       37.44589       65.26442
H         47.52677       38.12225       66.94564
H         48.88202       38.58674       65.86114
N         48.34977       34.14036       66.74694
C         47.41486       33.04894       67.04492
C         47.96021       32.01663       68.02413
O         47.21009       31.12116       68.39100
C         46.97990       32.38205       65.72136
C         48.09471       31.72460       64.94805
O         49.23324       31.65917       65.38134
O         47.82689       31.19724       63.74705
H         49.19537       33.92022       66.21341
H         46.49786       33.45930       67.52176
H         46.53379       33.16541       65.07198
H         46.20018       31.61410       65.91626
N         49.23029       32.07854       68.51527
C         49.73923       31.16107       69.52305
C         49.88840       29.71034       69.09196
O         50.31100       28.92983       69.93415
H         49.85358       32.84368       68.22276
H         49.07334       31.20656       70.41330
H         50.74564       31.51044       69.83972
N         49.57601       29.24729       67.84189
C         49.69774       27.83056       67.49445
C         51.14844       27.32946       67.41863
O         51.33257       26.13839       67.20755
C         48.93346       27.48312       66.19602
C         49.50517       28.02957       64.91575
N         49.00004       27.59821       63.73751
O         50.42939       28.82761       64.92633
H         49.18594       29.89018       67.14408
H         49.17244       27.25542       68.29045
H         47.87105       27.80163       66.28061
H         48.94159       26.37548       66.10292
H         48.22722       26.91800       63.71404
H         49.39694       27.91089       62.84430
N         52.22255       28.15389       67.60557
C         53.59808       27.67576       67.65413
C         54.25140       27.40181       66.30911
O         55.41681       27.03071       66.32587
H         52.07333       29.14670       67.82668
H         53.65339       26.77718       68.30853
H         54.21746       28.46354       68.13327
N         53.60955       27.56806       65.11581
C         54.24763       27.33711       63.81591
C         54.17476       28.58083       62.93004
O         53.61448       29.58934       63.34068
C         53.58178       26.12129       63.12097
C         53.79748       24.83595       63.92304
O         52.20314       26.33440       62.95378
H         52.62400       27.85244       65.11690
H         55.32751       27.10044       63.93957
H         54.05922       25.93017       62.13295
H         52.08727       26.82832       62.10056
H         53.32883       24.90739       64.92665
H         53.34917       23.97558       63.38253
H         54.88537       24.64138       64.04509
N         54.70959       28.55288       61.67149
C         54.61737       29.64261       60.70653
C         53.64003       29.21091       59.62671
O         53.82000       28.15151       59.03980
C         56.00658       30.00608       60.07410
C         57.01848       30.61262       61.08179
C         55.82081       31.03655       58.93570
C         57.62091       29.61466       62.06661
H         55.15623       27.68282       61.34485
H         54.21912       30.56554       61.18396
H         56.45872       29.10245       59.60712
H         56.55151       31.46341       61.62512
H         57.88751       31.01391       60.51318
H         56.79748       31.28001       58.46498
H         55.18364       30.63074       58.12353
H         55.36552       31.97427       59.31787
H         58.13908       28.80447       61.50980
H         58.37263       30.13912       62.69455
H         56.86583       29.17974       62.74270
N         52.60434       30.02618       59.28103
C         51.63256       29.71712       58.23667
C         51.87023       30.61757       57.04446
O         52.81959       31.37997       57.07301
C         50.20977       29.87588       58.79015
C         49.98952       28.96509       59.95595
O         50.68716       29.16263       61.08573
O         49.11344       28.11566       59.92465
H         52.52010       30.94164       59.74872
H         51.75424       28.67242       57.87532
H         49.46446       29.64053       58.00229
H         50.04030       30.92414       59.12506
N         51.10181       30.54315       55.92411
C         51.40912       31.30031       54.71519
C         51.36189       32.82419       54.89525
O         52.36516       33.44447       54.57196
C         50.53369       30.85201       53.53144
C         50.97962       31.54927       52.26674
C         50.10621       32.41136       51.58638
C         52.28727       31.36655       51.77449
C         50.53674       33.08694       50.44057
C         52.71348       32.04650       50.63265
C         51.83965       32.90772       49.96658
H         50.32089       29.86875       55.90253
H         52.45253       31.02985       54.44047
H         49.46778       31.06161       53.75019
H         50.63403       29.75398       53.38781
H         49.09835       32.56983       51.94893
H         52.98378       30.70708       52.27693
H         49.86162       33.75540       49.92385
H         53.72364       31.90823       50.26864
H         52.17351       33.43677       49.08413
N         50.28467       33.51972       55.39358
C         50.25544       34.97938       55.53620
C         51.21673       35.52022       56.59567
O         51.21128       36.72236       56.82368
C         48.78850       35.27210       55.87485
C         48.39026       34.04156       56.65603
C         49.03800       32.92896       55.83589
H         50.49370       35.48889       54.57637
H         48.59478       36.24936       56.36854
H         48.20127       35.24474       54.92834
H         48.89984       34.09467       57.64466
H         47.29957       33.91436       56.82297
H         49.16299       32.04717       56.49418
H         48.42543       32.68063       54.94247
N         52.10332       34.71299       57.23720
C         53.08611       35.15147       58.21142
C         54.46819       35.07458       57.57530
O         55.18394       36.06570       57.59339
C         52.96775       34.26254       59.46597
C         51.54299       34.32166       60.05135
C         51.34913       33.42719       61.24077
O         50.24944       33.36629       61.76618
O         52.35820       32.67852       61.72679
H         52.10868       33.71362       57.03407
H         52.91035       36.20715       58.51868
H         53.70403       34.59477       60.23010
H         53.19646       33.21062       59.19049
H         50.81213       33.99406       59.28158
H         51.30579       35.36709       60.34301
N         54.88342       33.94867       56.92963
C         56.14744       33.85027       56.23591
H         56.98588       33.95047       56.95359
H         56.22116       32.85958       55.73404
H         56.21470       34.63699       55.45433
H         54.26822       33.13638       56.88337
Ca        49.52987       30.38490       62.54915

Ca 1.0



