%chk=holoCaM.loop2.water2.frame154.chk
%nprocshared=20
%mem=10GB
%nosave
#b3lyp/svp scf=(tight,noincore,xqc) Test 
#IOP(5/87=12) Density=Current Pop=(MK,readradii) iop(6/33=2) iop(6/42=6)

holoCaM.loop2.water2.frame154 

   -2  1 
C         -7.38862       68.03997      -20.32484
C         -6.29222       67.23272      -20.95845
O         -5.22358       67.10214      -20.38063
H         -8.27597       67.38866      -20.16591
H         -7.07150       68.44559      -19.34111
H         -7.67595       68.87941      -20.99132
N         -6.51542       66.62732      -22.15413
C         -5.56441       65.72754      -22.79383
C         -4.27361       66.41661      -23.21161
O         -4.32470       67.39944      -23.93783
C         -6.21476       65.07328      -24.02277
C         -5.28730       64.06276      -24.62119
O         -4.93857       64.15799      -25.78664
O         -4.80541       63.06994      -23.85084
H         -7.43990       66.76290      -22.59384
H         -5.33956       64.90757      -22.07808
H         -6.48881       65.84337      -24.77739
H         -7.13962       64.54712      -23.70604
N         -3.07225       65.88413      -22.83753
C         -1.77711       66.41136      -23.24577
C         -0.92350       65.40221      -24.02454
O          0.10993       65.82942      -24.52164
C         -1.00796       66.85749      -21.99586
H         -3.08171       65.05546      -22.23858
H         -1.92303       67.29746      -23.90078
H         -1.59321       67.61646      -21.43495
H         -0.82482       65.98840      -21.32555
H         -0.02820       67.30343      -22.27091
N         -1.22294       64.06425      -24.12743
C         -0.31958       63.10415      -24.78435
C         -0.98321       62.16211      -25.79093
O         -0.25834       61.43864      -26.46087
C          0.43024       62.27831      -23.71601
C         -0.43362       61.38478      -22.85625
O          0.14825       60.63592      -21.90141
O         -1.64257       61.31744      -23.01115
H         -2.04864       63.70177      -23.63636
H          0.45536       63.66233      -25.35382
H          0.97563       62.98197      -23.05141
H          1.18517       61.63774      -24.22202
N         -2.33209       62.07970      -25.94044
C         -2.98266       61.18102      -26.87937
C         -2.71352       59.71600      -26.59380
O         -2.22905       59.02845      -27.48137
H         -2.93623       62.68097      -25.37669
H         -2.66222       61.43536      -27.91359
H         -4.08216       61.33645      -26.82174
N         -3.05577       59.15926      -25.39507
C         -2.97216       57.72252      -25.11668
C         -4.35905       57.12635      -24.82965
O         -4.43765       55.97516      -24.42265
C         -1.97987       57.41402      -23.96986
C         -2.38828       57.86620      -22.59531
N         -1.72059       57.40149      -21.51751
O         -3.33490       58.61487      -22.43810
H         -3.44243       59.77655      -24.66651
H         -2.56516       57.17786      -25.99631
H         -0.96945       57.81490      -24.20175
H         -1.89285       56.30654      -23.92046
H         -0.93085       56.74958      -21.62278
H         -2.02124       57.65728      -20.57202
N         -5.49925       57.83705      -25.07009
C         -6.84882       57.33306      -24.86271
C         -7.36177       57.43624      -23.43408
O         -8.54462       57.18763      -23.24868
H         -5.42494       58.75237      -25.52980
H         -6.95318       56.30328      -25.26897
H         -7.52881       57.98307      -25.45535
N         -6.57023       57.79654      -22.38090
C         -7.06986       57.98278      -21.01895
C         -6.60004       59.35922      -20.45873
O         -5.28723       59.24938      -20.02246
C         -6.61305       56.80096      -20.11167
C         -7.35537       55.50975      -20.44763
O         -5.22980       56.57364      -20.25049
H         -5.56943       57.93058      -22.53934
H         -8.18259       58.00648      -21.02072
H         -6.87253       57.01789      -19.04928
H         -4.78485       56.86478      -19.41263
H         -7.16466       55.19940      -21.49513
H         -7.01766       54.70027      -19.76535
H         -8.44756       55.65335      -20.29934
N         -7.46305       59.81416      -19.34519
C         -6.91551       60.84380      -18.42216
C         -5.79394       60.28852      -17.53442
O         -5.95697       59.24070      -16.92680
C         -8.10405       61.43802      -17.59299
C         -8.91009       62.39611      -18.51578
C         -7.63794       62.17602      -16.31885
C        -10.20580       62.93632      -17.90973
H         -7.81968       59.01066      -18.77941
H         -6.47756       61.68550      -18.99971
H         -8.75113       60.59956      -17.25048
H         -9.18484       61.86632      -19.45279
H         -8.26515       63.26232      -18.78947
H         -7.10665       61.47680      -15.63924
H         -6.96735       63.02329      -16.56577
H         -8.50094       62.54921      -15.73258
H        -10.02068       63.53236      -16.99428
H        -10.69526       63.60983      -18.64578
H        -10.89718       62.09981      -17.67929
N         -4.64512       61.01839      -17.37630
C         -3.50679       60.62826      -16.54216
C         -3.50115       61.42915      -15.25180
O         -4.38713       62.24160      -15.04082
C         -2.17883       60.90852      -17.29736
C         -2.16392       60.28321      -18.64553
O         -2.10673       61.06935      -19.73827
O         -2.35185       59.08558      -18.75541
H         -4.58803       61.93571      -17.83416
H         -3.57696       59.55067      -16.27826
H         -1.31029       60.52571      -16.72412
H         -2.06289       62.00755      -17.43275
N         -2.50908       61.23746      -14.33189
C         -2.41460       62.01474      -13.10337
C         -2.19300       63.50346      -13.37449
O         -2.94121       64.28288      -12.79702
C         -1.31380       61.47696      -12.16540
C         -1.38224       62.20558      -10.84130
C         -2.51781       62.06883      -10.01988
C         -0.33805       63.05007      -10.43105
C         -2.61036       62.77191       -8.81762
C         -0.43686       63.75491       -9.22637
C         -1.57229       63.61740       -8.42211
H         -1.80355       60.50840      -14.50608
H         -3.37709       61.88320      -12.56284
H         -0.32108       61.60157      -12.63951
H         -1.45791       60.39064      -11.97979
H         -3.33616       61.42229      -10.31178
H          0.54122       63.17767      -11.04981
H         -3.49073       62.66447       -8.19681
H          0.36391       64.41411       -8.91897
H         -1.64988       64.16691       -7.49325
N         -1.22295       64.01519      -14.20448
C         -1.03922       65.44163      -14.44247
C         -2.15476       66.06879      -15.28098
O         -2.06638       67.25606      -15.54853
C          0.32259       65.51516      -15.14327
C          0.32534       64.23943      -15.95068
C         -0.24193       63.23920      -14.94621
H         -0.96550       66.00762      -13.48687
H          0.52365       66.45114      -15.70735
H          1.11878       65.39948      -14.37201
H         -0.40681       64.36988      -16.77894
H          1.30327       63.94682      -16.38880
H         -0.66737       62.40081      -15.51593
H          0.54191       62.88519      -14.24606
N         -3.24150       65.35216      -15.69690
C         -4.35403       65.92331      -16.45022
C         -5.63369       65.92870      -15.61857
O         -6.63352       66.45323      -16.09406
C         -4.58144       65.08976      -17.72235
C         -3.30619       64.94550      -18.56691
C         -3.49052       64.01151      -19.72334
O         -4.69125       63.46728      -19.99658
O         -2.52599       63.71408      -20.40744
H         -3.30465       64.35683      -15.47632
H         -4.13225       66.97556      -16.72963
H         -5.40084       65.53043      -18.32979
H         -4.90342       64.07918      -17.40168
H         -2.50388       64.50818      -17.93989
H         -2.97194       65.93809      -18.93782
N         -5.69189       65.36902      -14.37692
C         -6.88319       65.37862      -13.56132
H         -7.71193       64.86255      -14.08865
H         -6.68443       64.84542      -12.60536
H         -7.16906       66.42500      -13.32720
H         -4.87261       64.90607      -13.97643
Ca        -3.97586       60.83103      -20.91609
O         -7.18904       62.35504      -21.87718
H         -8.04022       62.72733      -22.21784
H         -7.01671       62.86029      -21.04527
O         -6.12486       60.63521      -23.96571
H         -7.04045       60.63027      -24.33981
H         -5.55479       60.89567      -24.73161

Ca 1.0



