%chk=holoCaM.loop2.water2.frame306.chk
%nprocshared=20
%mem=10GB
%nosave
#b3lyp/svp scf=(tight,noincore,xqc) Test 
#IOP(5/87=12) Density=Current Pop=(MK,readradii) iop(6/33=2) iop(6/42=6)

holoCaM.loop2.water2.frame306 

   -2  1 
C         18.94243       50.74183       48.20484
C         18.70775       51.10093       46.75993
O         19.42280       51.91900       46.20287
H         19.76664       51.33416       48.65150
H         18.01414       50.89831       48.79388
H         19.21395       49.66318       48.27003
N         17.72250       50.45647       46.08710
C         17.46857       50.54000       44.64960
C         16.92453       51.87853       44.15522
O         15.96048       52.37903       44.71599
C         16.44910       49.44203       44.30799
C         16.26477       49.22633       42.84931
O         15.06630       48.79938       42.41469
O         17.23205       49.18712       42.10563
H         17.17568       49.77118       46.63419
H         18.41202       50.28890       44.11726
H         15.46645       49.65976       44.78280
H         16.81655       48.47721       44.70956
N         17.44566       52.45270       43.02801
C         16.89268       53.63105       42.36150
C         16.67826       53.39878       40.85096
O         16.54642       54.37676       40.12672
C         17.82093       54.82237       42.61920
H         18.26390       52.01327       42.58787
H         15.91289       53.92373       42.79680
H         17.87758       55.00668       43.71456
H         18.84207       54.63751       42.22850
H         17.40788       55.74357       42.15201
N         16.59011       52.14279       40.30788
C         16.40928       51.89870       38.86528
C         15.65908       50.60291       38.48403
O         15.37546       50.44177       37.30429
C         17.77999       51.96289       38.15023
C         18.79285       50.97028       38.66557
O         18.49341       50.11793       39.66219
O         19.91500       50.95398       38.18738
H         16.68062       51.35242       40.94735
H         15.76846       52.71127       38.45522
H         18.20803       52.97746       38.28697
H         17.64098       51.79624       37.05859
N         15.27433       49.65913       39.39150
C         14.53631       48.44435       39.05979
C         15.36901       47.36175       38.39400
O         14.80779       46.32639       38.06390
H         15.46445       49.81294       40.37367
H         13.66164       48.70979       38.42681
H         14.14275       47.99765       39.99753
N         16.70008       47.51929       38.15400
C         17.50400       46.55890       37.40251
C         17.84406       45.24662       38.13939
O         18.56079       44.44271       37.55837
C         18.78148       47.25526       36.88165
C         19.78164       47.64154       37.93281
N         20.98558       48.11436       37.55451
O         19.53183       47.51380       39.12035
H         17.13944       48.40857       38.41669
H         16.94117       46.29762       36.48000
H         18.50103       48.17314       36.31617
H         19.28433       46.56472       36.17353
H         21.22483       48.22617       36.55846
H         21.68672       48.33439       38.26746
N         17.36721       44.93465       39.38292
C         17.64972       43.66499       40.05780
C         19.07738       43.49422       40.57939
O         19.36380       42.43348       41.11599
H         16.71130       45.57606       39.84418
H         17.40224       42.82954       39.36488
H         16.97854       43.57101       40.93855
N         20.01941       44.47264       40.46032
C         21.41307       44.36033       40.90454
C         21.81969       45.55564       41.74338
O         21.54524       46.67384       41.34484
C         22.38478       44.33108       39.69465
C         22.20082       43.09317       38.81827
O         22.31500       45.50413       38.92280
H         19.74211       45.34070       40.00169
H         21.58662       43.41795       41.47139
H         23.42149       44.27683       40.09763
H         21.39000       45.59145       38.58814
H         21.16875       43.03797       38.41590
H         22.91838       43.13110       37.97153
H         22.41139       42.17984       39.41506
N         22.60266       45.40284       42.84426
C         23.24478       46.53140       43.51832
C         24.32833       47.10862       42.62577
O         25.18034       46.37035       42.14988
C         23.77705       46.09760       44.92021
C         22.54282       45.98902       45.85865
C         24.83089       47.07054       45.49322
C         22.86095       45.62483       47.30374
H         22.85416       44.44612       43.13804
H         22.50463       47.34177       43.70134
H         24.29426       45.11588       44.83506
H         21.84712       45.22683       45.44665
H         22.00505       46.96483       45.88407
H         25.22287       46.69045       46.45940
H         25.71757       47.12002       44.82599
H         24.41826       48.08983       45.63350
H         23.43614       46.43774       47.79480
H         21.90891       45.51307       47.86447
H         23.42930       44.67489       47.34717
N         24.38761       48.45899       42.43610
C         25.42822       49.12377       41.66347
C         26.40512       49.77710       42.62217
O         26.18300       49.69109       43.81346
C         24.80779       50.17786       40.72005
C         23.61023       49.66770       39.96770
O         22.44348       49.46049       40.60967
O         23.66034       49.53587       38.75921
H         23.71043       49.05665       42.93059
H         25.98654       48.37592       41.06008
H         25.59071       50.50959       40.00299
H         24.46711       51.06924       41.29224
N         27.53038       50.40977       42.19435
C         28.47307       51.05397       43.11158
C         27.85059       52.28425       43.79007
O         27.90515       52.32553       45.01074
C         29.81748       51.29568       42.39624
C         30.83903       52.04036       43.22513
C         31.25861       51.58177       44.49039
C         31.39847       53.21925       42.70720
C         32.20952       52.30730       45.22065
C         32.35045       53.93335       43.43464
C         32.75353       53.48180       44.69228
H         27.73683       50.40703       41.18395
H         28.73130       50.33253       43.92071
H         29.65205       51.82652       41.44069
H         30.23794       50.29778       42.13606
H         30.85378       50.67252       44.91678
H         31.10140       53.58374       41.73216
H         32.52799       51.96106       46.19607
H         32.77403       54.83775       43.01881
H         33.48940       54.04243       45.25400
N         27.20265       53.29654       43.12400
C         26.49215       54.39174       43.79110
C         25.54364       53.94189       44.90074
O         25.33721       54.68955       45.84536
C         25.68169       55.02805       42.65161
C         26.60582       54.83787       41.47356
C         27.08839       53.40512       41.68439
H         27.24792       55.09772       44.20097
H         24.77744       54.41019       42.44007
H         25.35727       56.07452       42.84053
H         26.16171       55.03221       40.47394
H         27.46933       55.52775       41.61949
H         26.35016       52.65950       41.32503
H         28.05380       53.29597       41.15593
N         24.92445       52.73160       44.83908
C         24.03338       52.20956       45.87459
C         24.84908       51.61253       47.01337
O         24.55226       51.89360       48.16512
C         23.01524       51.23814       45.23144
C         22.17219       52.04526       44.21683
C         21.21410       51.26564       43.38861
O         21.03626       49.94741       43.54539
O         20.64818       51.83523       42.47016
H         25.10089       52.13695       44.01445
H         23.40853       53.02693       46.29873
H         22.34180       50.79836       45.99940
H         23.55553       50.40946       44.72893
H         22.85522       52.52042       43.48238
H         21.60970       52.84523       44.74245
N         25.95430       50.86124       46.75535
C         26.86649       50.34963       47.75513
H         27.86517       50.81351       47.59516
H         26.53426       50.57494       48.78760
H         26.97280       49.25115       47.63303
H         26.21227       50.68939       45.78896
Ca        20.45177       49.08141       41.59251
O         18.24603       46.65843       41.83909
H         18.59991       46.24022       42.66090
H         17.28150       46.43996       41.85519
O         19.61556       47.63816       44.53096
H         18.86101       47.17980       44.97697
H         19.76279       48.44879       45.07731

Ca 1.0



