%chk=holoCaM-CaMKII.loop2.water2.frame26.chk
%nprocshared=20
%mem=10GB
%nosave
#b3lyp/svp scf=(tight,noincore,xqc) Test 
#IOP(5/87=12) Density=Current Pop=(MK,readradii) iop(6/33=2) iop(6/42=6)

holoCaM-CaMKII.loop2.water2.frame26 

   -2  1 
C         51.07260       71.45648       31.50579
C         51.69983       70.37540       30.67013
O         51.82308       69.25552       31.14207
H         50.04109       71.15099       31.78545
H         51.66629       71.62463       32.42647
H         51.00308       72.41432       30.94632
N         52.07937       70.63383       29.39017
C         52.55573       69.60593       28.47470
C         53.91052       69.02179       28.85167
O         54.88475       69.75915       28.91108
C         52.64067       70.18361       27.04975
C         53.05853       69.11655       26.09122
O         54.04571       69.25756       25.38753
O         52.36891       67.96609       26.06298
H         51.93557       71.58863       29.02501
H         51.79101       68.79658       28.45041
H         53.35224       71.03807       27.00755
H         51.63614       70.54823       26.74934
N         54.04520       67.67264       29.02503
C         55.32539       66.99579       29.18557
C         55.45778       65.87442       28.14998
O         55.70973       64.73914       28.53036
C         55.42892       66.45324       30.61709
H         53.20270       67.08598       28.99876
H         56.16406       67.70890       29.03320
H         54.61266       65.72489       30.81721
H         56.40804       65.95024       30.77057
H         55.34677       67.28743       31.34487
N         55.28491       66.12217       26.81550
C         55.38993       65.09209       25.77443
C         55.21405       65.67752       24.36824
O         56.14459       65.56957       23.58120
C         54.45885       63.86581       26.02756
C         53.07491       64.15455       26.55432
O         52.71549       63.67067       27.75814
O         52.25947       64.77783       25.90474
H         55.06916       67.08713       26.52860
H         56.42560       64.68131       25.79249
H         54.94134       63.23104       26.79942
H         54.40735       63.23492       25.11331
N         54.06216       66.28949       23.97316
C         53.82402       66.82033       22.63642
C         52.66325       66.12980       21.93249
O         52.36672       66.50457       20.80721
H         53.30443       66.38936       24.64544
H         54.72257       66.70684       21.99252
H         53.60287       67.90562       22.72200
N         51.98642       65.09181       22.50614
C         50.95010       64.31587       21.82683
C         49.71556       65.11335       21.40633
O         49.04701       64.67398       20.48089
C         50.57001       63.07535       22.67388
C         50.03924       63.37700       24.06089
N         49.77661       62.36246       24.91356
O         49.87150       64.52673       24.43485
H         52.27515       64.77452       23.43752
H         51.40951       63.93057       20.88889
H         51.49394       62.47059       22.80705
H         49.83017       62.45353       22.12672
H         49.93104       61.38381       24.63346
H         49.43553       62.55814       25.86416
N         49.33400       66.26321       22.03313
C         48.20354       67.08269       21.60463
C         47.05202       67.11663       22.59776
O         46.10184       67.84218       22.34282
H         49.87048       66.58169       22.84625
H         47.78486       66.72318       20.63932
H         48.57615       68.11551       21.43545
N         47.02665       66.32106       23.70578
C         45.89575       66.22837       24.62806
C         46.34140       66.43609       26.06114
O         47.26680       65.76315       26.48946
C         45.25656       64.81869       24.53546
C         44.57481       64.58420       23.18958
O         46.21968       63.81184       24.73593
H         47.81468       65.68726       23.87510
H         45.09941       66.96658       24.38413
H         44.44738       64.73953       25.30241
H         46.21764       63.58401       25.70204
H         44.10401       63.57769       23.18652
H         43.77796       65.34168       23.02895
H         45.30715       64.63925       22.35782
N         45.65824       67.27047       26.90067
C         45.93386       67.29770       28.33733
C         45.66239       65.90807       28.90475
O         44.52722       65.45272       28.86319
C         45.07722       68.37581       29.08119
C         45.48328       69.79630       28.60533
C         45.24062       68.24489       30.61273
C         44.68976       70.92896       29.26403
H         44.88009       67.83175       26.52286
H         47.00459       67.55701       28.49148
H         44.00151       68.20566       28.84832
H         45.32291       69.87613       27.51003
H         46.56293       69.96493       28.80914
H         46.29950       68.38880       30.91378
H         44.59829       68.96402       31.15658
H         44.89698       67.25146       30.95787
H         45.00986       71.90061       28.83341
H         43.60182       70.79781       29.08664
H         44.88443       70.98165       30.35461
N         46.67987       65.17622       29.44122
C         46.49219       63.86012       30.04569
C         45.97015       64.01802       31.46263
O         45.83610       65.14507       31.91328
C         47.82919       63.08730       30.07229
C         48.38278       62.85627       28.69267
O         48.54020       61.60033       28.23371
O         48.71310       63.79749       27.99048
H         47.62580       65.57894       29.42983
H         45.76986       63.27008       29.43781
H         47.66498       62.09450       30.54010
H         48.58201       63.63954       30.67647
N         45.64526       62.94680       32.23953
C         45.18686       63.11144       33.61446
C         46.30713       63.67060       34.50713
O         46.06210       64.69502       35.12211
C         44.58266       61.81254       34.19087
C         43.98644       62.05588       35.55626
C         44.61314       61.54878       36.70674
C         42.80162       62.80165       35.69072
C         44.06609       61.78960       37.97055
C         42.25053       63.02768       36.95536
C         42.88393       62.52472       38.09470
H         45.70091       61.99829       31.83523
H         44.34011       63.83709       33.60080
H         45.32999       61.01223       34.25277
H         43.78475       61.42468       33.52093
H         45.53290       60.98268       36.62670
H         42.29935       63.19740       34.81645
H         44.55961       61.40659       38.85407
H         41.33288       63.59373       37.05205
H         42.45922       62.70529       39.07357
N         47.55365       63.08932       34.63337
C         48.63317       63.64028       35.45752
C         48.87483       65.11489       35.21622
O         48.96839       65.88097       36.16639
C         49.87399       62.85075       35.00426
C         49.28169       61.50828       34.67926
C         48.01602       61.90703       33.92893
H         48.41143       63.43798       36.52898
H         50.26185       63.24891       34.03802
H         50.71086       62.84513       35.73497
H         49.94632       60.81258       34.12406
H         48.98790       61.03212       35.64330
H         48.22593       62.18167       32.87439
H         47.35012       61.03537       33.97212
N         48.96478       65.57196       33.94005
C         49.20821       66.95951       33.56416
C         48.13304       67.85180       34.15750
O         48.46363       68.79761       34.85829
C         49.27408       67.07349       32.01969
C         50.46761       66.25397       31.47329
C         50.56892       66.20850       29.97937
O         51.43016       65.51049       29.47325
O         49.72210       66.87930       29.18047
H         48.81854       64.87824       33.19126
H         50.19453       67.28953       33.96275
H         49.39935       68.13704       31.72236
H         48.32266       66.69820       31.58222
H         50.39020       65.19761       31.79388
H         51.41632       66.66166       31.88360
N         46.81822       67.56704       33.96962
C         45.75470       68.33271       34.57905
H         44.77286       67.87715       34.32556
H         45.86752       68.32243       35.68475
H         45.77480       69.37727       34.20729
H         46.56300       66.75118       33.40916
Ca        49.97776       66.55886       26.95725
O         50.24250       68.58840       24.36092
H         51.01337       68.04549       24.05962
H         50.02366       69.14763       23.57573
O         48.97866       69.27521       27.07026
H         48.93006       69.20514       28.05626
H         49.18584       70.22708       26.89906

Ca 1.0



