%chk=holoCaM-CaMKII.loop2.water2.frame231.chk
%nprocshared=20
%mem=10GB
%nosave
#b3lyp/svp scf=(tight,noincore,xqc) Test 
#IOP(5/87=12) Density=Current Pop=(MK,readradii) iop(6/33=2) iop(6/42=6)

holoCaM-CaMKII.loop2.water2.frame231 

   -2  1 
C         61.41153       37.17775       61.55190
C         61.06379       36.11549       62.55238
O         60.26513       35.24053       62.25243
H         62.50164       37.14076       61.33966
H         60.85901       37.02683       60.60071
H         61.15808       38.17685       61.96412
N         61.65527       36.12960       63.77633
C         61.42806       35.10983       64.79205
C         59.97567       35.11418       65.26144
O         59.50051       36.15242       65.69982
C         62.35618       35.37093       65.99945
C         62.37483       34.24729       66.99390
O         63.02525       34.40597       68.16039
O         61.85298       33.17670       66.73850
H         62.33080       36.88504       63.97378
H         61.70655       34.12653       64.35599
H         62.03063       36.30459       66.50539
H         63.40517       35.50672       65.65860
N         59.22821       33.97368       65.23096
C         57.84129       33.89053       65.68471
C         57.66331       32.95131       66.87993
O         56.53853       32.81235       67.34030
C         56.97975       33.40602       64.51294
H         59.66534       33.11619       64.87468
H         57.47295       34.88971       65.99990
H         57.07766       34.10536       63.65591
H         57.30663       32.39474       64.18310
H         55.90904       33.35558       64.80385
N         58.70664       32.25453       67.41553
C         58.57658       31.28075       68.49451
C         59.56864       31.53074       69.62969
O         59.12133       31.64639       70.76265
C         58.64165       29.83484       67.94538
C         59.77514       29.45456       67.03596
O         60.65994       30.34973       66.57263
O         59.83226       28.30809       66.62078
H         59.63003       32.37256       67.00091
H         57.56100       31.33563       68.94762
H         57.72481       29.66570       67.33910
H         58.60933       29.12917       68.80412
N         60.91763       31.59312       69.42094
C         61.90177       31.72674       70.48496
C         62.83385       30.52701       70.55475
O         63.66487       30.50597       71.45197
H         61.28605       31.53391       68.47007
H         61.40484       31.81164       71.47659
H         62.49381       32.65268       70.32735
N         62.72707       29.46318       69.69863
C         63.46009       28.21733       69.90584
C         64.98193       28.30124       69.75681
O         65.62857       27.32780       70.11802
C         62.89882       27.08501       69.01208
C         63.16995       27.22278       67.53632
N         62.85868       26.19873       66.71257
O         63.69497       28.22527       67.08237
H         62.01450       29.47843       68.95706
H         63.24863       27.91150       70.95437
H         61.80162       26.98719       69.16446
H         63.37368       26.13557       69.33619
H         62.41114       25.34674       67.07417
H         63.10027       26.22933       65.71855
N         65.62641       29.37691       69.21409
C         67.08205       29.45899       69.10389
C         67.61278       29.42175       67.67751
O         68.82646       29.45454       67.52983
H         65.07379       30.16723       68.87071
H         67.56358       28.60979       69.63425
H         67.42488       30.38995       69.60316
N         66.80034       29.29447       66.58824
C         67.30071       29.10917       65.22570
C         66.39296       29.76036       64.20360
O         65.18153       29.59654       64.27737
C         67.38892       27.60701       64.85001
C         68.47637       26.85935       65.61786
O         66.15522       26.96303       65.05037
H         65.78957       29.22946       66.73542
H         68.32605       29.52803       65.11373
H         67.69645       27.53292       63.77652
H         65.66418       26.99391       64.18818
H         68.53461       25.81375       65.24556
H         69.46365       27.34032       65.44422
H         68.25944       26.83814       66.70424
N         66.93821       30.37220       63.11461
C         66.13519       30.77335       61.96495
C         65.51643       29.50661       61.38272
O         66.25688       28.59753       61.02818
C         66.99295       31.50022       60.87723
C         67.71652       32.74663       61.46130
C         66.09226       31.91135       59.68852
C         68.68833       33.40455       60.47663
H         67.96376       30.45806       63.06692
H         65.34867       31.48545       62.29975
H         67.76731       30.78915       60.51103
H         68.33233       32.45594       62.33477
H         66.97250       33.49573       61.80842
H         65.31606       32.63472       60.02125
H         66.67836       32.36899       58.86806
H         65.58386       31.03151       59.24578
H         68.16430       33.82625       59.59676
H         69.21599       34.24045       60.98232
H         69.44675       32.66686       60.13605
N         64.16956       29.38680       61.24000
C         63.51676       28.21109       60.67277
C         63.06578       28.48489       59.26236
O         63.30803       29.57121       58.74889
C         62.32180       27.79900       61.56042
C         62.80709       27.13431       62.80350
O         62.65264       27.65812       64.02196
O         63.39111       26.06757       62.71326
H         63.57943       30.19196       61.49320
H         64.22496       27.35705       60.58007
H         61.69761       27.03147       61.06128
H         61.67298       28.68041       61.76477
N         62.45830       27.50386       58.54081
C         62.00277       27.67456       57.17306
C         60.88592       28.71647       57.08983
O         61.02516       29.61098       56.27711
C         61.65084       26.31670       56.53599
C         61.42224       26.45541       55.05479
C         60.15588       26.79751       54.55575
C         62.48734       26.25676       54.15875
C         59.95784       26.93084       53.17787
C         62.28744       26.40015       52.78419
C         61.02290       26.73414       52.29329
H         62.34392       26.57340       58.97785
H         62.87039       28.04320       56.57443
H         60.81269       25.77387       57.01055
H         62.54099       25.66441       56.68441
H         59.32483       26.95402       55.23257
H         63.47494       26.00333       54.52545
H         58.97909       27.18824       52.79556
H         63.11411       26.25348       52.10098
H         60.86968       26.84173       51.22770
N         59.78224       28.72451       57.91568
C         58.78270       29.79768       57.90892
C         59.32809       31.19686       58.19286
O         58.54845       32.14186       58.13712
C         57.83855       29.41628       59.06081
C         57.93284       27.91140       59.06728
C         59.43117       27.70145       58.87259
H         58.27426       29.76519       56.92118
H         58.28314       29.74623       60.03053
H         56.81524       29.84269       58.98641
H         57.51040       27.41437       59.96651
H         57.40044       27.53760       58.16290
H         59.98884       27.88595       59.81294
H         59.57925       26.66758       58.51544
N         60.62635       31.40566       58.55654
C         61.19411       32.69314       58.93090
C         62.31929       33.12244       57.99349
O         62.75846       34.25630       58.10514
C         61.75697       32.58301       60.36337
C         60.70666       32.03745       61.34592
C         61.24124       31.77119       62.71717
O         60.41408       31.23473       63.62960
O         62.40618       31.99137       63.00919
H         61.24154       30.59806       58.65492
H         60.40441       33.47552       58.89455
H         62.13964       33.56727       60.71211
H         62.61121       31.87311       60.33600
H         60.32633       31.05992       60.98403
H         59.85679       32.74643       61.41610
N         62.85833       32.26875       57.07091
C         63.92565       32.62675       56.16152
H         64.81328       31.99259       56.37203
H         63.59143       32.43248       55.12031
H         64.21845       33.69241       56.24677
H         62.53253       31.30288       57.00651
Ca        61.99742       29.51290       65.02460
O         64.68644       32.97707       64.66574
H         65.64520       32.87313       64.88966
H         64.68386       33.36069       63.75415
O         64.45039       31.85464       67.22867
H         65.43854       31.91181       67.20907
H         64.20610       32.16326       68.13671

Ca 1.0



