%chk=holoCaM.loop2.water1.frame53.chk
%nprocshared=20
%mem=10GB
%nosave
#b3lyp/svp scf=(tight,noincore,xqc) Test 
#IOP(5/87=12) Density=Current Pop=(MK,readradii) iop(6/33=2) iop(6/42=6)

holoCaM.loop2.water1.frame53 

   -2  1 
C         81.69874      121.80196       25.62818
C         80.99287      122.85534       24.82555
O         80.17114      122.51499       23.98723
H         82.42404      122.25272       26.33943
H         80.95538      121.22019       26.21247
H         82.24998      121.12190       24.94762
N         81.24643      124.17072       25.05490
C         80.56425      125.24764       24.35156
C         80.97028      125.28786       22.88021
O         82.12744      125.55529       22.58745
C         80.88502      126.56547       25.07007
C         80.27292      127.76911       24.44973
O         79.15281      127.74002       23.96544
O         80.91245      128.93567       24.59751
H         81.91710      124.41115       25.80253
H         79.47045      125.08132       24.44511
H         81.98609      126.72196       25.10474
H         80.52836      126.50403       26.12174
N         80.06332      124.99214       21.90232
C         80.40710      124.92210       20.48505
C         80.45535      126.30107       19.84214
O         81.52756      126.72161       19.43125
C         79.41670      124.01353       19.74048
H         79.12837      124.68706       22.19493
H         81.40072      124.42940       20.39117
H         79.70040      123.92927       18.67022
H         79.43290      122.99798       20.19044
H         78.37599      124.39385       19.80612
N         79.31924      127.04405       19.67750
C         79.30147      128.35660       19.02045
C         80.04855      129.44214       19.80578
O         80.18165      130.53871       19.27906
C         77.84802      128.81833       18.72119
C         77.00518      128.94257       19.95303
O         75.86783      129.38026       19.88847
O         77.51911      128.57904       21.13435
H         78.42671      126.62988       19.98085
H         79.80175      128.25033       18.03292
H         77.35326      128.09988       18.03444
H         77.88266      129.80851       18.21474
N         80.58453      129.22122       21.04198
C         81.39069      130.20986       21.73643
C         80.61180      131.42740       22.19366
O         80.97810      132.51814       21.77903
H         80.48616      128.30236       21.49311
H         82.23302      130.51116       21.07412
H         81.86045      129.74734       22.62103
N         79.57021      131.33497       23.08516
C         78.87498      132.51665       23.61741
C         79.06146      132.69383       25.12942
O         78.67811      133.73387       25.64564
C         77.38438      132.50314       23.19443
C         76.38669      131.73030       24.09346
N         75.92392      132.53824       25.21235
O         76.90568      130.53843       24.58951
H         79.26975      130.40159       23.39545
H         79.32312      133.41577       23.14231
H         77.33300      132.11355       22.15388
H         77.01286      133.54912       23.14147
H         75.40351      133.35776       24.82731
H         75.22369      131.97041       25.74017
N         79.63767      131.72213       25.89806
C         79.90808      131.82132       27.32399
C         79.17846      130.76337       28.14032
O         79.52253      130.59395       29.30040
H         79.92543      130.84613       25.46207
H         79.66214      132.82320       27.73551
H         81.00114      131.66430       27.45182
N         78.12256      130.06439       27.62991
C         77.33621      129.08191       28.37656
C         77.20134      127.77581       27.59300
O         77.71042      127.66747       26.48763
C         75.93359      129.67379       28.68093
C         76.03226      130.89288       29.60558
O         75.29078      130.02248       27.48199
H         77.80501      130.28894       26.68641
H         77.82334      128.84087       29.34655
H         75.32425      128.91424       29.21776
H         74.33697      130.19010       27.70135
H         76.52274      130.60317       30.56007
H         76.61206      131.71136       29.13155
H         75.01473      131.26998       29.84195
N         76.48393      126.74331       28.12559
C         76.22817      125.46728       27.46420
C         74.73675      125.36524       27.16845
O         73.92148      125.71319       28.01034
C         76.73272      124.29509       28.35779
C         78.27769      124.37491       28.48705
C         76.30136      122.92781       27.78311
C         78.87718      123.33146       29.43185
H         76.06660      126.86621       29.05905
H         76.76898      125.39921       26.49612
H         76.27162      124.39617       29.36553
H         78.56044      125.37262       28.88501
H         78.74590      124.25983       27.48345
H         76.72866      122.76933       26.77079
H         76.60901      122.09444       28.44396
H         75.19693      122.85944       27.72481
H         78.71190      122.29953       29.06269
H         79.97484      123.48431       29.49770
H         78.44000      123.43787       30.44686
N         74.32501      124.83393       25.98203
C         72.93406      124.71216       25.55847
C         72.49993      123.25289       25.59017
O         73.27601      122.41086       26.00088
C         72.80028      125.27718       24.12856
C         73.36942      126.66259       24.01592
O         74.29504      126.87822       23.25060
O         72.87543      127.66722       24.76297
H         75.03856      124.47382       25.34118
H         72.26777      125.28050       26.24351
H         71.73412      125.30371       23.82107
H         73.34623      124.61027       23.42259
N         71.24926      122.88423       25.19469
C         70.76687      121.50253       25.22494
C         71.57507      120.55276       24.33102
O         72.10354      119.59510       24.88200
C         69.25335      121.47397       24.90972
C         68.67407      120.08199       24.78460
C         68.83740      119.12338       25.80137
C         67.94886      119.73616       23.63000
C         68.29422      117.84212       25.65533
C         67.39624      118.46057       23.49565
C         67.57175      117.51252       24.50538
H         70.60118      123.62484       24.88925
H         70.86766      121.13131       26.26988
H         69.04937      122.04246       23.97981
H         68.72936      122.00862       25.73154
H         69.39164      119.35855       26.70029
H         67.79987      120.45716       22.83571
H         68.43162      117.10393       26.43471
H         66.83150      118.20854       22.60731
H         67.14641      116.52335       24.39641
N         71.72311      120.69434       22.97615
C         72.44376      119.73565       22.14232
C         73.92712      119.69833       22.46928
O         74.50719      118.62229       22.44262
C         72.13982      120.20241       20.71436
C         71.97107      121.69584       20.87284
C         71.19190      121.78773       22.18500
H         72.04068      118.70147       22.23740
H         72.85856      119.86336       19.93721
H         71.13209      119.81276       20.44142
H         72.98199      122.13152       21.01678
H         71.49392      122.21689       20.01625
H         71.37430      122.78808       22.62605
H         70.10858      121.60940       22.02049
N         74.58783      120.82338       22.85176
C         75.99447      120.84721       23.24294
C         76.21987      119.89708       24.40920
O         77.09576      119.04785       24.32495
C         76.40800      122.28817       23.61551
C         76.29618      123.24066       22.40212
C         76.62062      124.67281       22.71964
O         76.98952      125.05172       23.95596
O         76.56018      125.50982       21.83349
H         74.04783      121.69571       22.91825
H         76.63507      120.52628       22.39097
H         77.45893      122.29425       23.97710
H         75.75479      122.63379       24.43806
H         75.26660      123.23632       21.99357
H         76.98731      122.88910       21.60613
N         75.41388      119.95137       25.50428
C         75.50447      119.05183       26.63463
H         75.63951      119.64267       27.56435
H         74.55688      118.47639       26.71643
H         76.34472      118.33433       26.53909
H         74.66112      120.64213       25.52238
Ca        76.54390      129.01122       23.03734
O         73.59966      129.76077       22.44798
H         73.55735      128.99563       21.82091
H         74.35180      130.31122       22.11480

Ca 1.0



