%chk=holoCaM-CaMKII.loop2.water2.frame232.chk
%nprocshared=20
%mem=10GB
%nosave
#b3lyp/svp scf=(tight,noincore,xqc) Test 
#IOP(5/87=12) Density=Current Pop=(MK,readradii) iop(6/33=2) iop(6/42=6)

holoCaM-CaMKII.loop2.water2.frame232 

   -2  1 
C         63.38906       37.53052       50.87763
C         63.14885       36.90029       52.22010
O         62.51666       35.85736       52.30219
H         64.48433       37.58299       50.69121
H         62.92021       36.93994       50.06369
H         62.97815       38.56203       50.86429
N         63.67144       37.48837       53.32611
C         63.59443       36.92588       54.66826
C         62.17101       36.86237       55.21158
O         61.50048       37.88492       55.24540
C         64.45161       37.78454       55.61421
C         64.48449       37.19256       56.98265
O         63.98487       37.88566       58.02050
O         64.93756       36.07241       57.15093
H         64.20875       38.36000       53.18853
H         64.03973       35.90661       54.64813
H         64.03980       38.81684       55.66239
H         65.49480       37.84335       55.23667
N         61.69108       35.69727       55.74335
C         60.39037       35.57245       56.39710
C         60.49905       35.19853       57.88301
O         59.45980       35.12732       58.52438
C         59.55554       34.53078       55.64638
H         62.28832       34.86124       55.70705
H         59.84575       36.54031       56.35468
H         59.43234       34.84011       54.58653
H         60.05498       33.53799       55.67265
H         58.54549       34.43645       56.09965
N         61.69389       34.95057       58.50373
C         61.82504       34.61702       59.92661
C         62.71519       35.62433       60.66847
O         62.24644       36.16602       61.66011
C         62.25975       33.14542       60.13792
C         63.29088       32.63245       59.18669
O         64.46408       33.24922       59.03609
O         63.04960       31.64589       58.50792
H         62.56023       34.98380       57.95156
H         60.83877       34.66556       60.44130
H         61.36689       32.49591       59.99413
H         62.59786       33.00386       61.18735
N         63.97975       35.94573       60.25893
C         64.84403       36.90953       60.94322
C         66.21369       36.35506       61.32142
O         66.99786       37.10141       61.88932
H         64.33655       35.53448       59.39554
H         64.35978       37.29146       61.86762
H         65.01011       37.77739       60.27505
N         66.56408       35.06011       61.07990
C         67.80154       34.43721       61.56034
C         69.08542       34.81697       60.79241
O         70.12923       34.28333       61.14250
C         67.59447       32.90060       61.60380
C         67.43238       32.26083       60.25522
N         67.11638       30.95167       60.14995
O         67.57944       32.92546       59.24811
H         65.86002       34.44732       60.65485
H         67.93717       34.72963       62.62459
H         66.67059       32.70273       62.19217
H         68.44240       32.40864       62.12363
H         66.96681       30.37534       60.98946
H         67.00414       30.51797       59.22377
N         69.11260       35.73083       59.77440
C         70.34988       36.15552       59.11222
C         70.85284       35.24733       57.99040
O         71.87543       35.57694       57.40736
H         68.25056       36.23860       59.53733
H         71.14496       36.31296       59.87493
H         70.16689       37.14227       58.63570
N         70.19031       34.11955       57.61139
C         70.59152       33.23659       56.51305
C         69.45314       33.06192       55.51936
O         68.31611       32.92488       55.94262
C         70.95202       31.82987       57.05555
C         72.22968       31.84502       57.89117
O         69.90526       31.30566       57.83495
H         69.34905       33.86424       58.12782
H         71.48637       33.61952       55.97298
H         71.16534       31.14982       56.19425
H         69.27597       30.85091       57.21712
H         73.08231       32.20599       57.27658
H         72.11486       32.49769       58.78071
H         72.46090       30.81203       58.23034
N         69.70244       32.92039       54.18392
C         68.68637       32.41959       53.25772
C         68.50106       30.93290       53.51175
O         69.47712       30.19622       53.52205
C         69.05063       32.69334       51.76485
C         69.04018       34.22579       51.51889
C         68.04184       31.98798       50.82421
C         69.35115       34.64453       50.08124
H         70.67241       33.01189       53.84446
H         67.72225       32.94658       53.43148
H         70.06002       32.28096       51.54414
H         69.78891       34.70486       52.18449
H         68.03957       34.63467       51.77285
H         68.06119       30.88969       50.97396
H         67.00879       32.35577       51.00202
H         68.30308       32.13487       49.75846
H         70.34539       34.26407       49.77091
H         68.57400       34.28256       49.37698
H         69.34882       35.75298       50.01724
N         67.24581       30.42578       53.65146
C         66.95348       29.01438       53.87054
C         66.37370       28.42586       52.60984
O         66.20125       29.13085       51.62679
C         65.94294       28.85457       55.01885
C         66.39625       29.53129       56.26047
O         66.69901       30.83274       56.18820
O         66.39569       28.95065       57.33340
H         66.44872       31.06558       53.55834
H         67.88474       28.45598       54.10948
H         65.72260       27.78706       55.23295
H         64.99321       29.35223       54.72026
N         66.09220       27.09805       52.55940
C         65.66141       26.45292       51.33558
C         64.32242       26.96028       50.80740
O         64.27324       27.21127       49.60971
C         65.71089       24.92180       51.47377
C         65.56688       24.25256       50.12622
C         64.53354       23.33354       49.89555
C         66.47239       24.54293       49.08323
C         64.40204       22.72408       48.64350
C         66.32912       23.94209       47.83313
C         65.29483       23.03241       47.61249
H         66.27260       26.51815       53.39224
H         66.43417       26.71230       50.58315
H         64.93913       24.57928       52.19599
H         66.70687       24.63368       51.87713
H         63.83287       23.08793       50.68321
H         67.28934       25.23883       49.22490
H         63.60539       22.01378       48.47150
H         67.02249       24.18360       47.03718
H         65.18828       22.56550       46.64277
N         63.19729       27.16103       51.56729
C         61.95946       27.68343       51.00979
C         62.11854       29.14673       50.61193
O         61.54822       29.54234       49.60626
C         60.93581       27.44410       52.12465
C         61.75609       27.62013       53.37755
C         63.07070       26.92471       52.99854
H         61.60599       27.10352       50.12683
H         60.00274       28.04395       52.05234
H         60.65293       26.36628       52.09641
H         61.92778       28.71071       53.49454
H         61.28868       27.25723       54.31730
H         63.86771       27.39177       53.60445
H         63.03168       25.82999       53.17426
N         62.91631       29.99650       51.32600
C         63.11355       31.39967       50.96176
C         63.85585       31.54668       49.63502
O         63.90618       32.65466       49.11863
C         63.90335       32.13515       52.06672
C         63.16822       32.10203       53.42380
C         63.96203       32.68148       54.55917
O         63.43172       32.67285       55.79445
O         65.08529       33.12586       54.39343
H         63.41016       29.63024       52.14918
H         62.11212       31.87543       50.86908
H         64.07294       33.19696       51.78011
H         64.88893       31.64060       52.15558
H         62.93835       31.06004       53.71855
H         62.21097       32.65774       53.33141
N         64.47459       30.48647       49.03861
C         65.16671       30.55215       47.76940
H         66.23258       30.27842       47.91769
H         64.70791       29.81989       47.07081
H         65.11406       31.55906       47.30802
H         64.48041       29.57552       49.50425
Ca        65.75877       32.24962       57.56224
O         66.58218       35.48339       53.84065
H         66.77276       36.42255       53.59598
H         66.06409       35.12881       53.07535
O         67.72971       36.07238       57.04890
H         67.75391       37.04117       56.84769
H         67.71561       35.63105       56.16497

Ca 1.0



