%chk=holoCaM-CaMKII.loop2.water2.frame183.chk
%nprocshared=20
%mem=10GB
%nosave
#b3lyp/svp scf=(tight,noincore,xqc) Test 
#IOP(5/87=12) Density=Current Pop=(MK,readradii) iop(6/33=2) iop(6/42=6)

holoCaM-CaMKII.loop2.water2.frame183 

   -2  1 
C         20.24961       55.89288        1.36901
C         20.41805       57.28681        0.84516
O         19.77428       57.62496       -0.13681
H         20.89073       55.71451        2.25772
H         19.19014       55.73072        1.65677
H         20.53191       55.16629        0.57885
N         21.26992       58.15683        1.45897
C         21.48655       59.52665        1.00373
C         22.03146       59.50543       -0.41905
O         23.18508       59.15190       -0.61644
C         22.35868       60.26103        2.05783
C         22.90301       61.63011        1.74378
O         22.14081       62.65486        1.31760
O         24.09691       61.81940        1.89540
H         21.77264       57.82666        2.29718
H         20.50723       60.01618        0.99566
H         23.23769       59.62097        2.29425
H         21.74864       60.33765        2.98462
N         21.18955       59.75807       -1.47289
C         21.55589       59.50652       -2.86529
C         22.20683       60.70072       -3.53181
O         22.70491       60.53424       -4.63697
C         20.32309       59.07851       -3.67647
H         20.19970       59.95625       -1.26640
H         22.26935       58.65295       -2.89257
H         19.56486       59.89141       -3.69727
H         20.60896       58.83442       -4.72303
H         19.86330       58.17334       -3.22600
N         22.24197       61.92959       -2.94133
C         22.93019       63.07454       -3.53166
C         24.09863       63.52671       -2.66563
O         24.78540       64.45985       -3.05745
C         21.93738       64.21260       -3.85393
C         21.22588       64.82946       -2.68223
O         20.42963       65.73081       -2.88427
O         21.45120       64.41930       -1.42154
H         21.78021       62.05829       -2.03026
H         23.37934       62.79000       -4.50770
H         21.16986       63.81557       -4.55390
H         22.48728       65.02337       -4.37995
N         24.42764       62.88010       -1.50872
C         25.59756       63.20971       -0.71915
C         25.52528       64.59429       -0.12871
O         26.44027       65.37633       -0.34028
H         23.86955       62.07979       -1.17988
H         26.51127       63.08906       -1.33975
H         25.67734       62.48716        0.11854
N         24.47355       64.94752        0.66028
C         24.37374       66.21269        1.37471
C         24.32361       65.97477        2.88782
O         24.07584       66.91621        3.62826
C         23.16821       67.02613        0.85181
C         21.81667       66.58025        1.35452
N         21.02658       67.45329        2.02453
O         21.42271       65.44408        1.14922
H         23.71537       64.27230        0.78372
H         25.26561       66.83998        1.15921
H         23.17965       67.01430       -0.26050
H         23.31483       68.08207        1.16471
H         21.33125       68.42187        2.19959
H         20.09659       67.17321        2.35872
N         24.60162       64.74275        3.41829
C         24.61187       64.44587        4.84048
C         23.23838       64.27056        5.46262
O         23.20230       64.02036        6.65953
H         24.91818       63.98502        2.80175
H         25.19316       65.22876        5.37599
H         25.14202       63.48057        4.99349
N         22.07405       64.38750        4.75351
C         20.74723       64.29493        5.37369
C         19.86535       63.27085        4.63338
O         20.29406       62.74583        3.61570
C         20.18141       65.74208        5.39552
C         18.85654       65.93050        6.13497
O         21.13302       66.57117        6.01862
H         22.11602       64.62688        3.75244
H         20.84194       63.95422        6.42823
H         20.04782       66.05989        4.33951
H         21.10009       67.45430        5.56547
H         18.59695       67.01015        6.14477
H         18.02085       65.41995        5.62784
H         18.94797       65.57939        7.18502
N         18.62392       62.92835        5.09802
C         17.70471       61.99833        4.43303
C         16.44679       62.74072        3.98369
O         15.82466       63.42056        4.78906
C         17.34010       60.81027        5.38570
C         18.59554       59.93325        5.63322
C         16.18610       59.96098        4.80627
C         18.34547       58.71377        6.52819
H         18.29839       63.33817        5.98373
H         18.16866       61.55550        3.52364
H         16.97814       61.21879        6.35608
H         19.37749       60.55677        6.11614
H         18.99336       59.56545        4.66141
H         16.46396       59.52426        3.82508
H         15.88359       59.15192        5.49860
H         15.27374       60.57729        4.69533
H         17.65384       57.99187        6.04573
H         19.30083       58.17408        6.69357
H         17.93044       59.02539        7.50916
N         15.96429       62.54782        2.71739
C         14.69144       63.07577        2.22323
C         13.63450       61.97723        2.25056
O         13.95202       60.85984        2.63019
C         14.86047       63.57401        0.77150
C         15.86712       64.67365        0.64288
O         15.65833       65.85335        1.25678
O         16.86048       64.51647       -0.04909
H         16.46743       61.89098        2.10446
H         14.33155       63.90103        2.87654
H         13.89886       63.96424        0.38138
H         15.17020       62.71464        0.13345
N         12.33792       62.22512        1.89619
C         11.30746       61.19011        1.93321
C         11.53767       60.07095        0.91542
O         11.44559       58.92505        1.32765
C          9.88001       61.74550        1.77255
C          8.88364       60.64901        2.10615
C          8.02991       60.12192        1.12354
C          8.83176       60.11767        3.41199
C          7.15295       59.07662        1.43983
C          7.95545       59.07627        3.72192
C          7.11795       58.55351        2.73612
H         12.06708       63.18759        1.64109
H         11.34816       60.75521        2.95587
H          9.74243       62.12555        0.73888
H          9.71220       62.59115        2.47347
H          8.05505       60.50497        0.11168
H          9.47541       60.50273        4.19315
H          6.50427       58.66512        0.67817
H          7.93146       58.67169        4.72626
H          6.44395       57.74183        2.97803
N         11.84606       60.27473       -0.41070
C         12.11624       59.18029       -1.34106
C         13.39635       58.41727       -1.01015
O         13.71319       57.48536       -1.73715
C         12.17344       59.87361       -2.70849
C         12.72438       61.23505       -2.35472
C         11.96283       61.55965       -1.07242
H         11.28291       58.44462       -1.35624
H         12.71604       59.32191       -3.50707
H         11.12878       60.04358       -3.05421
H         13.79932       61.10342       -2.10121
H         12.64280       62.00911       -3.14737
H         12.55781       62.30651       -0.52501
H         10.94137       61.94323       -1.28343
N         14.15696       58.72105        0.08060
C         15.35292       57.99726        0.47809
C         15.16450       57.30116        1.82600
O         16.00303       56.48322        2.17573
C         16.50588       59.00028        0.57157
C         16.64953       59.82613       -0.72256
C         17.65597       60.91129       -0.57150
O         17.86775       61.69139       -1.48546
O         18.41385       60.95239        0.52668
H         13.90968       59.52510        0.65822
H         15.58969       57.21399       -0.27433
H         17.45517       58.48128        0.82649
H         16.26767       59.70268        1.39956
H         15.69428       60.32832       -0.96228
H         16.94081       59.16421       -1.56617
N         14.10194       57.57977        2.64003
C         13.83567       56.91965        3.89889
H         12.81475       56.48165        3.86100
H         14.56003       56.10986        4.11552
H         13.86404       57.66653        4.72013
H         13.43494       58.30898        2.38639
Ca        20.07173       62.39628        0.60555
O         18.94526       66.56413       -0.20080
H         18.91719       66.78274       -1.16365
H         18.56408       67.36375        0.24035
O         18.18639       65.15420        2.69481
H         18.10903       66.01547        2.21838
H         17.47030       65.20356        3.37383

Ca 1.0



